System                                  
   1.0000000000000000     
     9.9607399999999995    0.0001100000000000   -0.0000600000000000
     0.0000400000000000   12.9470899999999993    0.0015800000000000
     0.0000400000000000   -0.0010200000000000    9.4285399999999999
  Li              Mn              P               O             
     9    16    16    64
Direct
     0.5295374847394965    0.6211116169752822    0.6810111548406628
     0.2306676904245574    0.1220900934108575    0.1815233262978086
     0.7314518039638325    0.1218280673246987    0.1718540457725355
     0.4790154128084503    0.8750697928701346    0.3274864738051825
     0.9973592234601802    0.4077238906054697    0.2926258496694958
     0.9793472812080953    0.8750439682326154    0.3221462585428781
     0.2730136750996838    0.3757719544081284    0.8260091977205762
     0.7723818943264987    0.3779699231963344    0.8224947272130434
     0.7552326511197762    0.9016224750755382    0.7998674983996630
     0.5004490260401752    0.2515004702932160    0.0003050425861099
     0.4990840518270195    0.7466166741146024    0.0001348134879699
     0.0016902976565039    0.2507696000424134    0.0030113977686551
     0.0042635794169671    0.7487395812619561    0.9967190722031166
     0.2532821299426354    0.2489406657269821    0.5067630396506286
     0.2487802639230489    0.7511490518792545    0.5001238411083497
     0.7479953881632753    0.2491737376595947    0.5005290098257561
     0.7534455823270183    0.7460071729879643    0.5037688889798799
     0.0027961172428642    0.0045378071059619    0.9859109857093492
     0.0177926359705833    0.5065406790733126    0.9887953738338483
     0.4923468314963963    0.0027410383355443    0.9939462997334577
     0.5033278064085218    0.4989391129385790    0.0124626445156753
     0.2534290036031934    0.5056006112583457    0.4936860748908800
     0.2464544409275679    0.9995796153653161    0.5147302626858311
     0.7521508546565699    0.5062615418671291    0.4897383425481637
     0.7381358711334552    0.0021238114455259    0.4978215399223948
     0.2402464345988062    0.3642036369010893    0.1881405392093560
     0.2303603999194890    0.8822142360591892    0.1726910241425617
     0.7358479423704845    0.3617191847248036    0.1858330643058364
     0.7264230463596553    0.8806651401926062    0.1710733117348365
     0.0274829781646470    0.3793376031000519    0.6664385779289733
     0.0180548764256375    0.8661995279564501    0.6826812939747900
     0.5191845036479983    0.3815112521799887    0.6713737802294035
     0.5090656499782181    0.8613467850466184    0.6839521741951703
     0.2614813532435836    0.1351721790463997    0.8216369242564316
     0.2705460823087121    0.6157383272009369    0.8236465673222428
     0.7564364157011648    0.1356121556070165    0.8161434499192938
     0.7704479651919728    0.6173008524955630    0.8293042644882904
     0.4773987562847003    0.1164450848956287    0.3292868569243761
     0.4822796735321876    0.6337272335137818    0.3222872553534469
     0.9788050882385917    0.1154224536546169    0.3294333822950019
     0.9962336426449434    0.6354190688112510    0.3151838304287587
     0.0909264850089924    0.2816720489088706    0.6000581145096898
     0.0918047336472670    0.7714914862859500    0.6204527319298067
     0.5912934293198127    0.2891130868663216    0.6012820583648183
     0.5734049054639980    0.7610097727291868    0.6300446245352093
     0.1741952886122333    0.2619275796608712    0.1410613360468274
     0.1594992376768176    0.7907639214748892    0.0998821693681085
     0.6667614795546124    0.2619674287491670    0.1310140376848082
     0.6540861865594189    0.7875649335737018    0.1023677035118815
     0.3288516461547042    0.2348714182439800    0.8794456285712170
     0.3501492656747514    0.7087096231820454    0.8834951253008958
     0.8283910808368272    0.2331556214753223    0.8718433250173665
     0.8427296000176793    0.7124361633706798    0.8957092734116532
     0.4038888717520875    0.2098773692783514    0.3953551193977397
     0.4121795300022080    0.7336140716242746    0.3789619802046901
     0.9051068134954223    0.2093042350925738    0.3967347808287536
     0.9249916544939264    0.7327788627764691    0.3708108022081691
     0.3349962950761963    0.0377658899419141    0.8713451438417782
     0.3299365238811788    0.5139097746401137    0.8816603206656259
     0.8278659052539803    0.0347625208686142    0.8625745251131958
     0.8331946136928357    0.5156399668106760    0.8830202600449040
     0.4193545424842670    0.0145072502472131    0.3885152742789592
     0.4047787901726169    0.5376146314225418    0.3777260352272676
     0.9171113666996833    0.0133517458651607    0.3832956248776403
     0.9239110069956162    0.5352313475802818    0.3604757992708883
     0.3845372002260213    0.3715159768938254    0.1289562710180900
     0.3837991916400317    0.8772362202996360    0.1380712871377223
     0.8864517284622728    0.3608298671044163    0.1375059933175992
     0.8785097554273420    0.8770221628114571    0.1339034483085757
     0.2725742997493864    0.1367128884909498    0.6531087071647335
     0.2989262862988368    0.6180129101491791    0.6554820487939088
     0.7622464405765673    0.1364841593719301    0.6473483546549945
     0.7810509931409604    0.6232415173811993    0.6641216447206635
     0.1141744432284819    0.1330903414371962    0.8784000099178880
     0.1216030297917873    0.6252611397530627    0.8663487316955204
     0.6103322304684419    0.1329274628802410    0.8792878146833741
     0.6182901771442226    0.6217710194665965    0.8755561202850718
     0.1308725512656171    0.1204895486948136    0.3683495547450912
     0.1439718822530819    0.6324182266820697    0.3765616036746856
     0.6307798164131209    0.1217803825176628    0.3628379324707317
     0.6283803128319094    0.6300133920734081    0.3771095886794978
     0.0584936223827898    0.3783769716757462    0.8301662369348970
     0.0222654150889960    0.8633963619490318    0.8519339439078939
     0.5466300192106087    0.3743301183536057    0.8364245571788784
     0.5244491134502415    0.8629416500318300    0.8545626374428955
     0.2272170250973400    0.3687432294425123    0.3613432238775378
     0.2012161533455981    0.8742411816478871    0.3384129485938863
     0.7314969341023397    0.3632216911455265    0.3561088032109951
     0.6969348925796619    0.8757318917423363    0.3356235001098847
     0.1490165319008837    0.4542850440934842    0.1448822136246598
     0.1702437963429286    0.9852817736046311    0.1210547259545534
     0.6644093439425445    0.4577798119203768    0.1333353904749421
     0.6649856415620626    0.9826102891784926    0.1125833222570539
     0.4477023405900678    0.1212663496816207    0.1643693551798171
     0.4717009803476182    0.6339262779055532    0.1547580343598720
     0.9512358371827385    0.1221314602022272    0.1641113380740230
     0.9907791229438820    0.6368427991936509    0.1459327341629155
     0.3653118840073379    0.3758424057125512    0.6347596892997733
     0.3630412946612166    0.8691028541763639    0.6235907712223002
     0.8749765006144021    0.3805732834317820    0.6327239198704688
     0.8669345708310464    0.8637182126864650    0.6356760090456426
     0.0955724808853649    0.4762036653610295    0.5997010392451771
     0.0842003889170448    0.9667836286759691    0.6353978516382364
     0.5783442566197678    0.4836409726853276    0.6176708041696530
     0.5966886768297353    0.9543303788496301    0.6427757496936056

  0.00000000E+00  0.00000000E+00  0.00000000E+00
  0.00000000E+00  0.00000000E+00  0.00000000E+00
  0.00000000E+00  0.00000000E+00  0.00000000E+00
  0.00000000E+00  0.00000000E+00  0.00000000E+00
  0.00000000E+00  0.00000000E+00  0.00000000E+00
  0.00000000E+00  0.00000000E+00  0.00000000E+00
  0.00000000E+00  0.00000000E+00  0.00000000E+00
  0.00000000E+00  0.00000000E+00  0.00000000E+00
  0.00000000E+00  0.00000000E+00  0.00000000E+00
  0.00000000E+00  0.00000000E+00  0.00000000E+00
  0.00000000E+00  0.00000000E+00  0.00000000E+00
  0.00000000E+00  0.00000000E+00  0.00000000E+00
  0.00000000E+00  0.00000000E+00  0.00000000E+00
  0.00000000E+00  0.00000000E+00  0.00000000E+00
  0.00000000E+00  0.00000000E+00  0.00000000E+00
  0.00000000E+00  0.00000000E+00  0.00000000E+00
  0.00000000E+00  0.00000000E+00  0.00000000E+00
  0.00000000E+00  0.00000000E+00  0.00000000E+00
  0.00000000E+00  0.00000000E+00  0.00000000E+00
  0.00000000E+00  0.00000000E+00  0.00000000E+00
  0.00000000E+00  0.00000000E+00  0.00000000E+00
  0.00000000E+00  0.00000000E+00  0.00000000E+00
  0.00000000E+00  0.00000000E+00  0.00000000E+00
  0.00000000E+00  0.00000000E+00  0.00000000E+00
  0.00000000E+00  0.00000000E+00  0.00000000E+00
  0.00000000E+00  0.00000000E+00  0.00000000E+00
  0.00000000E+00  0.00000000E+00  0.00000000E+00
  0.00000000E+00  0.00000000E+00  0.00000000E+00
  0.00000000E+00  0.00000000E+00  0.00000000E+00
  0.00000000E+00  0.00000000E+00  0.00000000E+00
  0.00000000E+00  0.00000000E+00  0.00000000E+00
  0.00000000E+00  0.00000000E+00  0.00000000E+00
  0.00000000E+00  0.00000000E+00  0.00000000E+00
  0.00000000E+00  0.00000000E+00  0.00000000E+00
  0.00000000E+00  0.00000000E+00  0.00000000E+00
  0.00000000E+00  0.00000000E+00  0.00000000E+00
  0.00000000E+00  0.00000000E+00  0.00000000E+00
  0.00000000E+00  0.00000000E+00  0.00000000E+00
  0.00000000E+00  0.00000000E+00  0.00000000E+00
  0.00000000E+00  0.00000000E+00  0.00000000E+00
  0.00000000E+00  0.00000000E+00  0.00000000E+00
  0.00000000E+00  0.00000000E+00  0.00000000E+00
  0.00000000E+00  0.00000000E+00  0.00000000E+00
  0.00000000E+00  0.00000000E+00  0.00000000E+00
  0.00000000E+00  0.00000000E+00  0.00000000E+00
  0.00000000E+00  0.00000000E+00  0.00000000E+00
  0.00000000E+00  0.00000000E+00  0.00000000E+00
  0.00000000E+00  0.00000000E+00  0.00000000E+00
  0.00000000E+00  0.00000000E+00  0.00000000E+00
  0.00000000E+00  0.00000000E+00  0.00000000E+00
  0.00000000E+00  0.00000000E+00  0.00000000E+00
  0.00000000E+00  0.00000000E+00  0.00000000E+00
  0.00000000E+00  0.00000000E+00  0.00000000E+00
  0.00000000E+00  0.00000000E+00  0.00000000E+00
  0.00000000E+00  0.00000000E+00  0.00000000E+00
  0.00000000E+00  0.00000000E+00  0.00000000E+00
  0.00000000E+00  0.00000000E+00  0.00000000E+00
  0.00000000E+00  0.00000000E+00  0.00000000E+00
  0.00000000E+00  0.00000000E+00  0.00000000E+00
  0.00000000E+00  0.00000000E+00  0.00000000E+00
  0.00000000E+00  0.00000000E+00  0.00000000E+00
  0.00000000E+00  0.00000000E+00  0.00000000E+00
  0.00000000E+00  0.00000000E+00  0.00000000E+00
  0.00000000E+00  0.00000000E+00  0.00000000E+00
  0.00000000E+00  0.00000000E+00  0.00000000E+00
  0.00000000E+00  0.00000000E+00  0.00000000E+00
  0.00000000E+00  0.00000000E+00  0.00000000E+00
  0.00000000E+00  0.00000000E+00  0.00000000E+00
  0.00000000E+00  0.00000000E+00  0.00000000E+00
  0.00000000E+00  0.00000000E+00  0.00000000E+00
  0.00000000E+00  0.00000000E+00  0.00000000E+00
  0.00000000E+00  0.00000000E+00  0.00000000E+00
  0.00000000E+00  0.00000000E+00  0.00000000E+00
  0.00000000E+00  0.00000000E+00  0.00000000E+00
  0.00000000E+00  0.00000000E+00  0.00000000E+00
  0.00000000E+00  0.00000000E+00  0.00000000E+00
  0.00000000E+00  0.00000000E+00  0.00000000E+00
  0.00000000E+00  0.00000000E+00  0.00000000E+00
  0.00000000E+00  0.00000000E+00  0.00000000E+00
  0.00000000E+00  0.00000000E+00  0.00000000E+00
  0.00000000E+00  0.00000000E+00  0.00000000E+00
  0.00000000E+00  0.00000000E+00  0.00000000E+00
  0.00000000E+00  0.00000000E+00  0.00000000E+00
  0.00000000E+00  0.00000000E+00  0.00000000E+00
  0.00000000E+00  0.00000000E+00  0.00000000E+00
  0.00000000E+00  0.00000000E+00  0.00000000E+00
  0.00000000E+00  0.00000000E+00  0.00000000E+00
  0.00000000E+00  0.00000000E+00  0.00000000E+00
  0.00000000E+00  0.00000000E+00  0.00000000E+00
  0.00000000E+00  0.00000000E+00  0.00000000E+00
  0.00000000E+00  0.00000000E+00  0.00000000E+00
  0.00000000E+00  0.00000000E+00  0.00000000E+00
  0.00000000E+00  0.00000000E+00  0.00000000E+00
  0.00000000E+00  0.00000000E+00  0.00000000E+00
  0.00000000E+00  0.00000000E+00  0.00000000E+00
  0.00000000E+00  0.00000000E+00  0.00000000E+00
  0.00000000E+00  0.00000000E+00  0.00000000E+00
  0.00000000E+00  0.00000000E+00  0.00000000E+00
  0.00000000E+00  0.00000000E+00  0.00000000E+00
  0.00000000E+00  0.00000000E+00  0.00000000E+00
  0.00000000E+00  0.00000000E+00  0.00000000E+00
  0.00000000E+00  0.00000000E+00  0.00000000E+00
  0.00000000E+00  0.00000000E+00  0.00000000E+00
  0.00000000E+00  0.00000000E+00  0.00000000E+00
  0.00000000E+00  0.00000000E+00  0.00000000E+00
