System
1.0
11.400938747708212 -0.127046185305991 -0.2333408100202317
-5.717220176732502 9.997921982161543 0.0770862630575056
0.0362140596339119 0.0921245990614989 9.263612084811271
Li Mn Co Ni O 
5 12 8 12 64 
direct
0.673844963221418 0.3365560899214887 0.8983284864648147 Li
0.3323027944034905 0.161209226510104 0.4023876170432027 Li
0.3321963181485721 0.6612622124760427 0.4025612477648952 Li
0.8325946830680933 0.169144169320431 0.4016156154330339 Li
0.8324803237325337 0.669053113741383 0.4022468860540656 Li
0.0852243013193853 0.412646707957922 0.2095850994169817 Mn
0.0851740371788032 0.9126982415225745 0.2098793373518437 Mn
0.5835799291239032 0.4204950874276215 0.2115664668840989 Mn
0.5836614475469547 0.920577105951096 0.2116680921574655 Mn
0.0856961661745362 0.1647095660329564 0.2117764319302968 Mn
0.0855397252414604 0.6646460463542088 0.2120130868654975 Mn
0.5839065703054037 0.1718618110362505 0.2088127475220063 Mn
0.5840244502718549 0.671943665037005 0.2090484530452904 Mn
0.1671227565688951 0.0818846788256287 0.7133641659876707 Mn
0.1669796838951 0.5819254477624454 0.7134642388531878 Mn
0.6654934084906263 0.0831998358877844 0.7097100818444855 Mn
0.6653924286691034 0.5832445865202728 0.7101054236117229 Mn
0.1680069135760497 0.3277435920450257 0.4870359546954542 Co
0.1680169062544422 0.827779885141196 0.4872043705977003 Co
0.6679353352093117 0.3385295764526469 0.4857438578287048 Co
0.6680134989588042 0.8385998096911245 0.4860536911581136 Co
0.340550652678161 0.1732386145314476 0.9797187342649277 Co
0.3404752224276433 0.6733957341408606 0.9798434859387402 Co
0.8414101240399702 0.1683429127055167 0.9816035614652959 Co
0.8409608744949902 0.6683466154204104 0.9821111437419752 Co
0.4174972321197184 0.0859547985259907 0.7117435743639636 Ni
0.4173578353145627 0.5859676526912269 0.7118484703872885 Ni
0.915734904168225 0.0839040692496699 0.7122341931755607 Ni
0.9155873346991309 0.5838196491859222 0.7124457271778961 Ni
0.3326568481282064 0.4157280731043881 0.2079597405946976 Ni
0.3325359266602089 0.9157584061206936 0.2078298022576372 Ni
0.8326058520221251 0.4187666902311024 0.2092578966898537 Ni
0.832688753827666 0.9188593885594654 0.2092839186960982 Ni
0.4139025434578268 0.331357919613156 0.7117885911705933 Ni
0.4138106547812375 0.8313308650527044 0.7119369120243576 Ni
0.9186006623885096 0.3323257567118262 0.7106541600565611 Ni
0.9185132950771896 0.8324561949148496 0.7112556422068419 Ni
0.1720564474031799 0.0839789358046457 0.1067444928288143 O
0.1721189280786321 0.5841261339284745 0.1068288249039139 O
0.6729198217017492 0.0901871233774651 0.1056755643584283 O
0.6731319530912779 0.590406717996212 0.1057479914098143 O
0.4198861078035905 0.3365941684115342 0.0958073768852156 O
0.4195393898853727 0.8359733933445785 0.0962318380616583 O
0.9180386380047995 0.3227006169717014 0.0955160466574369 O
0.9177350441053798 0.822629065591382 0.0960777622778443 O
0.3347218184853941 0.1695441966399561 0.6104814388873938 O
0.3346093679578327 0.6696264733998355 0.610659989198498 O
0.8356309123203806 0.1677673000510049 0.6096811833828252 O
0.8355145462890131 0.667998594782075 0.6102314646063342 O
0.2640151054888821 0.0267088104852805 0.844198689029173 O
0.2640158880482582 0.526929394525878 0.844483939219172 O
0.7612049195511257 0.0217990814489684 0.8401840539543008 O
0.7607800635361853 0.5217390033452682 0.8406924644810223 O
0.2625121303929083 0.2392955853285015 0.8389383101087277 O
0.2623375968714034 0.7395238870522256 0.8389056019674663 O
0.7626879265106162 0.2378181206778587 0.8406551713382476 O
0.7623225892905466 0.7378709069353923 0.8411705727522859 O
0.3202552657796946 0.4051791924026739 0.5985268167751973 O
0.3203785223954712 0.9051880198690814 0.5986497842926617 O
0.8196574722364409 0.413859989612449 0.5981498272259292 O
0.8202423406704271 0.9142205756150084 0.598389520877436 O
0.2332488297182809 0.2501590807883706 0.3490057610964921 O
0.2331980844048722 0.7502665471881634 0.3490667557491809 O
0.7374821073777343 0.2636758425663724 0.34353414908788 O
0.7375627270696181 0.763756869963413 0.3438662674144173 O
0.0195884615291877 0.256094394099112 0.3375452728507681 O
0.019513553767919 0.7561079851499286 0.3378746379333823 O
0.5192469826521411 0.2618012572450809 0.337149041611375 O
0.5193760200150465 0.7618239615215814 0.3374368980452521 O
0.0790593891256922 0.159922071831597 0.5968055697762744 O
0.0790744913116438 0.6599641580374009 0.5969142564078898 O
0.5840511875438062 0.1671642757097543 0.5988871639281393 O
0.5841593627682607 0.6674588027755879 0.5992828058872643 O
0.9973098522722637 0.9980387917303589 0.8096478568925245 O
0.9971181099772315 0.497711189645087 0.809485966043275 O
0.4972730170243835 0.9967905756760661 0.8082292850975411 O
0.4970543746296689 0.4967387611387552 0.8082942612615505 O
0.9988596501970447 0.9943788422630244 0.3083559849461248 O
0.9988393706969383 0.4942006662492273 0.308309442845385 O
0.498419122403212 0.002548154264864 0.3075113732711533 O
0.4985782685417149 0.5026045045544265 0.3076300816576794 O
0.1687918900635642 0.3314984236509382 0.1085600146805785 O
0.1685548256804374 0.8314590016572639 0.1086548662280251 O
0.667228073050956 0.3391731359479781 0.1062762552947552 O
0.6672958299110469 0.8392519089375631 0.1064124969929099 O
0.4835060789229086 0.2520708945312222 0.8450838419751168 O
0.4833756475633122 0.752082836994272 0.8450331951033324 O
0.9803242114758518 0.2336480177938801 0.8494578158868283 O
0.9797395394296916 0.7339474765517391 0.8505056233976519 O
0.0839820368010277 0.4172205867128816 0.5999717250394615 O
0.083817766129752 0.9170757082593011 0.6002263628633574 O
0.5791796624365254 0.4191210566841934 0.5984268806479421 O
0.5790959130292622 0.9188792598412855 0.5985525772772403 O
0.2374126354102257 0.4737692802932975 0.3450505532168907 O
0.2372572018022363 0.9738276135746644 0.3451979093563473 O
0.7321513373405726 0.482582911813645 0.3486565976153763 O
0.7321801197314736 0.9826011561871614 0.348711210504166 O
0.4196819878720873 0.0972744780008617 0.0956108481806147 O
0.4198064412088713 0.5972844297041361 0.0958213880589172 O
0.9203307557942892 0.0854003743514928 0.0961897047371694 O
0.9201241066335827 0.5852941494754248 0.0965958623336435 O
