NMC-811                                 
   1.00000000000000     
     5.6980416966667846    0.0247606345170521    0.0106549688180528
    -2.8538904544248322    4.9838312332780808   -0.0327542399233836
     0.0264883155653681   -0.0776344841424875   14.0804096392192850
   Li   Ni   O    Co   Mn
    11    10    24     1     1
Direct
  0.1689346873806282  0.3344580727762677  0.1669673542340846
  0.1668032432987537  0.8387660254772181  0.1691968118240990
  0.6652456115674787  0.3352837310999932  0.1678564545183210
  0.6655506082634373  0.8337000000754021  0.1679719067366547
  0.5018671585429159  0.4982710770196859  0.4979830623852983
  0.5055929722657889  0.0013250677770951  0.5012023705182921
  0.0029358416678861  0.5030352152609582  0.5005976661911062
  0.0023659608697525  0.0004181851587644  0.5005840616756498
  0.3361712476826502  0.1637714785473377  0.8315313440795773
  0.3288599916376027  0.6604214087535548  0.8319765903915534
  0.8251282122435855  0.6697444705869483  0.8327223995860410
  0.9987820619318279  0.0019188108209923  0.9978371679904335
  0.9976891641438483  0.4998598284087306  0.9977826697050391
  0.4998733081583360  0.0010987137945435  0.9980718108328530
  0.4986238086789826  0.5009777827800184  0.0021568578407680
  0.3349667353276193  0.1681999574449710  0.3340250900263577
  0.3344421293423421  0.6684005956415220  0.3335785180871110
  0.8346111767252673  0.6682089430725695  0.3336289388279877
  0.1649979068889267  0.3297056201541593  0.6683006354105726
  0.1662845127695379  0.8294046161332937  0.6642955683561735
  0.6673694520083103  0.3290281889827588  0.6687614535657964
  0.3604709208109132  0.1814170906001517  0.0755238071227922
  0.3150028550992329  0.6417015652148396  0.0772831972833402
  0.8310948697114550  0.1692893216904977  0.0666623216437968
  0.8233935197913448  0.6854098056456965  0.0755971979572362
  0.9953418904266805  0.0177354741300681  0.2516198681624550
  0.9824363197593401  0.4877636695106471  0.2570221315612500
  0.5161101146651613  0.0079622352222479  0.2551368088474224
  0.5095193147885754  0.5013299227549600  0.2626660787643041
  0.1543589283436321  0.3296501657587985  0.4122700274897936
  0.1594026061389223  0.8347606345631050  0.4046763668685555
  0.6753174842923039  0.3199498124657561  0.4160837672362446
  0.6872047336457200  0.8498260605161705  0.4093281448880836
  0.3238531143395326  0.1593485802530923  0.5947207831085707
  0.3469265740391288  0.6853210141547295  0.5888957739530866
  0.8342560126036672  0.1531073643875554  0.5977069923093834
  0.8390573297332760  0.6761766363940030  0.5913531393627891
  0.9926751114854341  0.9705152345538653  0.7402825339002390
  0.0141952437702143  0.5122119335292619  0.7359556560478099
  0.4823493928382607  0.9779471468179514  0.7386408318437520
  0.4987528362266060  0.5071676564756747  0.7378714095557325
  0.1869292815181741  0.3240317644945093  0.9266639823116773
  0.1672084200951133  0.8334088621448564  0.9293173480545615
  0.6735915345125987  0.3640210585909260  0.9256838476101685
  0.6323357290219822  0.8086546620079017  0.9273828036983907
  0.6670510098497909  0.8308349308561748  0.6674858886401471
  0.8354204830974624  0.1690200844997230  0.3336671149946216
 
  0.00000000E+00  0.00000000E+00  0.00000000E+00
  0.00000000E+00  0.00000000E+00  0.00000000E+00
  0.00000000E+00  0.00000000E+00  0.00000000E+00
  0.00000000E+00  0.00000000E+00  0.00000000E+00
  0.00000000E+00  0.00000000E+00  0.00000000E+00
  0.00000000E+00  0.00000000E+00  0.00000000E+00
  0.00000000E+00  0.00000000E+00  0.00000000E+00
  0.00000000E+00  0.00000000E+00  0.00000000E+00
  0.00000000E+00  0.00000000E+00  0.00000000E+00
  0.00000000E+00  0.00000000E+00  0.00000000E+00
  0.00000000E+00  0.00000000E+00  0.00000000E+00
  0.00000000E+00  0.00000000E+00  0.00000000E+00
  0.00000000E+00  0.00000000E+00  0.00000000E+00
  0.00000000E+00  0.00000000E+00  0.00000000E+00
  0.00000000E+00  0.00000000E+00  0.00000000E+00
  0.00000000E+00  0.00000000E+00  0.00000000E+00
  0.00000000E+00  0.00000000E+00  0.00000000E+00
  0.00000000E+00  0.00000000E+00  0.00000000E+00
  0.00000000E+00  0.00000000E+00  0.00000000E+00
  0.00000000E+00  0.00000000E+00  0.00000000E+00
  0.00000000E+00  0.00000000E+00  0.00000000E+00
  0.00000000E+00  0.00000000E+00  0.00000000E+00
  0.00000000E+00  0.00000000E+00  0.00000000E+00
  0.00000000E+00  0.00000000E+00  0.00000000E+00
  0.00000000E+00  0.00000000E+00  0.00000000E+00
  0.00000000E+00  0.00000000E+00  0.00000000E+00
  0.00000000E+00  0.00000000E+00  0.00000000E+00
  0.00000000E+00  0.00000000E+00  0.00000000E+00
  0.00000000E+00  0.00000000E+00  0.00000000E+00
  0.00000000E+00  0.00000000E+00  0.00000000E+00
  0.00000000E+00  0.00000000E+00  0.00000000E+00
  0.00000000E+00  0.00000000E+00  0.00000000E+00
  0.00000000E+00  0.00000000E+00  0.00000000E+00
  0.00000000E+00  0.00000000E+00  0.00000000E+00
  0.00000000E+00  0.00000000E+00  0.00000000E+00
  0.00000000E+00  0.00000000E+00  0.00000000E+00
  0.00000000E+00  0.00000000E+00  0.00000000E+00
  0.00000000E+00  0.00000000E+00  0.00000000E+00
  0.00000000E+00  0.00000000E+00  0.00000000E+00
  0.00000000E+00  0.00000000E+00  0.00000000E+00
  0.00000000E+00  0.00000000E+00  0.00000000E+00
  0.00000000E+00  0.00000000E+00  0.00000000E+00
  0.00000000E+00  0.00000000E+00  0.00000000E+00
  0.00000000E+00  0.00000000E+00  0.00000000E+00
  0.00000000E+00  0.00000000E+00  0.00000000E+00
  0.00000000E+00  0.00000000E+00  0.00000000E+00
  0.00000000E+00  0.00000000E+00  0.00000000E+00
