NMC-811                                 
   1.00000000000000     
     5.6407026806077125    0.0160568993238429   -0.0062249007363474
    -2.8335415972046714    4.8848868648795074   -0.0039604739603944
    -0.0157258711181917   -0.0206388068688421   14.2399302361199265
   Li   Ni   O    Co   Mn
     3    10    24     1     1
Direct
  0.1583007929763269  0.8250220956411667  0.1679377181451400
  0.4907091269131527  0.9921073066689772  0.5019116098842389
  0.3362001239741588  0.1774614892447985  0.8310446887360925
  0.9996414269299265  0.0018734527689475  0.9998544464151777
  0.0001186387536549  0.5014951337870741  0.9955745160015397
  0.5006820300992487  0.0018699402520923  0.9998378464215918
  0.5002776119766921  0.5021450362555839  0.0039215515983599
  0.3354001813356859  0.1632262987708017  0.3325835012125253
  0.3350405772912808  0.6614179266132112  0.3326058874941964
  0.8337874743656215  0.6619868980793129  0.3370382660645035
  0.1658447731963975  0.3359788280999751  0.6636779154501085
  0.1650915202384837  0.8349548311918369  0.6678992956953635
  0.6674729799199284  0.3372204915140813  0.6676169481265717
  0.3281411095764497  0.1571947195278725  0.0699906451104439
  0.3317886394760237  0.6731424779998321  0.0677328808209055
  0.8360759695318336  0.1728112249397071  0.0648448946368489
  0.8410192812526986  0.6734740992794812  0.0677471897252317
  0.0056819719511978  0.9929768699844317  0.2633791312840330
  0.0022445156735316  0.5062092742232522  0.2646478042011182
  0.4927214317433055  0.9903207168460284  0.2623161112674595
  0.5023048922732869  0.4946097337797539  0.2659263130315637
  0.1672225127902607  0.3287764547408472  0.3990638369764312
  0.1792262120505157  0.8355694181486015  0.4030731731029320
  0.6639541013249044  0.3156537376708854  0.4018870970470729
  0.6666382620005038  0.8339332083338888  0.4008974906658125
  0.3357871909689578  0.1645953026533817  0.5980984045205133
  0.3387544815989116  0.6772171359057850  0.6005578827255320
  0.8236736973862904  0.1619374864237884  0.6004013808684476
  0.8306759016727341  0.6706853562858086  0.6024370723655039
  0.0082743197264179  0.0103642789338707  0.7348855777280789
  0.0025784830025728  0.5014502547625312  0.7337422680143248
  0.4970613007237361  0.0072942588410854  0.7366648717900190
  0.4930517028517301  0.4949464616438490  0.7346603953487190
  0.1760722060357907  0.3304967376736982  0.9319880245648307
  0.1695310086256541  0.8416145455767747  0.9308948663718510
  0.6525158251429062  0.3309331406493143  0.9321077063851462
  0.6664760266691090  0.8349287251132225  0.9337391728713271
  0.6668122749234797  0.8358311997442058  0.6710645548658150
  0.8364391660566497  0.1628604954302304  0.3288000614646478
 
  0.00000000E+00  0.00000000E+00  0.00000000E+00
  0.00000000E+00  0.00000000E+00  0.00000000E+00
  0.00000000E+00  0.00000000E+00  0.00000000E+00
  0.00000000E+00  0.00000000E+00  0.00000000E+00
  0.00000000E+00  0.00000000E+00  0.00000000E+00
  0.00000000E+00  0.00000000E+00  0.00000000E+00
  0.00000000E+00  0.00000000E+00  0.00000000E+00
  0.00000000E+00  0.00000000E+00  0.00000000E+00
  0.00000000E+00  0.00000000E+00  0.00000000E+00
  0.00000000E+00  0.00000000E+00  0.00000000E+00
  0.00000000E+00  0.00000000E+00  0.00000000E+00
  0.00000000E+00  0.00000000E+00  0.00000000E+00
  0.00000000E+00  0.00000000E+00  0.00000000E+00
  0.00000000E+00  0.00000000E+00  0.00000000E+00
  0.00000000E+00  0.00000000E+00  0.00000000E+00
  0.00000000E+00  0.00000000E+00  0.00000000E+00
  0.00000000E+00  0.00000000E+00  0.00000000E+00
  0.00000000E+00  0.00000000E+00  0.00000000E+00
  0.00000000E+00  0.00000000E+00  0.00000000E+00
  0.00000000E+00  0.00000000E+00  0.00000000E+00
  0.00000000E+00  0.00000000E+00  0.00000000E+00
  0.00000000E+00  0.00000000E+00  0.00000000E+00
  0.00000000E+00  0.00000000E+00  0.00000000E+00
  0.00000000E+00  0.00000000E+00  0.00000000E+00
  0.00000000E+00  0.00000000E+00  0.00000000E+00
  0.00000000E+00  0.00000000E+00  0.00000000E+00
  0.00000000E+00  0.00000000E+00  0.00000000E+00
  0.00000000E+00  0.00000000E+00  0.00000000E+00
  0.00000000E+00  0.00000000E+00  0.00000000E+00
  0.00000000E+00  0.00000000E+00  0.00000000E+00
  0.00000000E+00  0.00000000E+00  0.00000000E+00
  0.00000000E+00  0.00000000E+00  0.00000000E+00
  0.00000000E+00  0.00000000E+00  0.00000000E+00
  0.00000000E+00  0.00000000E+00  0.00000000E+00
  0.00000000E+00  0.00000000E+00  0.00000000E+00
  0.00000000E+00  0.00000000E+00  0.00000000E+00
  0.00000000E+00  0.00000000E+00  0.00000000E+00
  0.00000000E+00  0.00000000E+00  0.00000000E+00
  0.00000000E+00  0.00000000E+00  0.00000000E+00
