NMC-811                                 
   1.00000000000000     
     5.6417710668125256    0.0043120895943322   -0.0028612532931544
    -2.8206545157804777    4.8842931990189964   -0.0029123051359508
    -0.0069672981103436   -0.0121975810799836   13.6541918997072873
   Li   Ni   O    Co   Mn
     1    10    24     1     1
Direct
  0.4925632349701327  0.9926602029878766  0.5047404059940943
  0.9994587868470978  0.0012607970324439  0.9993585395882368
  0.9994661430247481  0.5013070522811065  0.9993855619859594
  0.4994454327258327  0.0012664176676301  0.9993503112106907
  0.4994424576192962  0.5012635148495387  0.9991900175246609
  0.3358999928556252  0.1667042611004810  0.3248537730600262
  0.3358090870507668  0.6663409688945858  0.3247886256022688
  0.8354651532150170  0.6662838569937224  0.3293122774409752
  0.1657043291487045  0.3322480716781702  0.6716168125549798
  0.1648115499303063  0.8320408119957474  0.6760317550454287
  0.6660972993600454  0.3331728826850273  0.6757557293983097
  0.3331722973720644  0.1685398401301577  0.0683678673092261
  0.3332965834603740  0.6679775026998610  0.0683921255737876
  0.8331125653537299  0.1682497658838602  0.0685345864660602
  0.8325980412180911  0.6680062356469136  0.0683768323769121
  0.0016828960225506  0.9932914996766550  0.2563489970017926
  0.0016700554678327  0.5050172156668546  0.2564621939904569
  0.4995672901023257  0.9982516598574074  0.2544226318304853
  0.5036938339697871  0.5000178805475785  0.2569636548703433
  0.1713506822074249  0.3345789778895208  0.3953733075854485
  0.1792816954575743  0.8386061198979357  0.3977200807341577
  0.6649759678889802  0.3271416071755619  0.3976881357713380
  0.6647924914465991  0.8355771527785804  0.3975972656273742
  0.3355943646149026  0.1614058528672461  0.6031065273668673
  0.3352506531058209  0.6721178803144161  0.6039038297641643
  0.8254642385640171  0.1620755763118648  0.6036035617466916
  0.8317901806704531  0.6660727812717628  0.6064369956528255
  0.0008097885827220  0.0035882234410709  0.7429003543346315
  0.0009839702853010  0.4972930281650967  0.7435909415605708
  0.5002157631041165  0.9989285341800757  0.7441769499973009
  0.4954129967337393  0.4979222403637479  0.7427934755036608
  0.1656838336450149  0.3342988793124375  0.9303646162611919
  0.1657359325500279  0.8341351150139424  0.9303995903473266
  0.6660159153928275  0.3343853822467777  0.9303457275115783
  0.6659712015354989  0.8344344402410606  0.9303576805436081
  0.6661392336420153  0.8320749787661461  0.6765272775104383
  0.8376727198586523  0.1673730784871174  0.3228517303561603
 
  0.00000000E+00  0.00000000E+00  0.00000000E+00
  0.00000000E+00  0.00000000E+00  0.00000000E+00
  0.00000000E+00  0.00000000E+00  0.00000000E+00
  0.00000000E+00  0.00000000E+00  0.00000000E+00
  0.00000000E+00  0.00000000E+00  0.00000000E+00
  0.00000000E+00  0.00000000E+00  0.00000000E+00
  0.00000000E+00  0.00000000E+00  0.00000000E+00
  0.00000000E+00  0.00000000E+00  0.00000000E+00
  0.00000000E+00  0.00000000E+00  0.00000000E+00
  0.00000000E+00  0.00000000E+00  0.00000000E+00
  0.00000000E+00  0.00000000E+00  0.00000000E+00
  0.00000000E+00  0.00000000E+00  0.00000000E+00
  0.00000000E+00  0.00000000E+00  0.00000000E+00
  0.00000000E+00  0.00000000E+00  0.00000000E+00
  0.00000000E+00  0.00000000E+00  0.00000000E+00
  0.00000000E+00  0.00000000E+00  0.00000000E+00
  0.00000000E+00  0.00000000E+00  0.00000000E+00
  0.00000000E+00  0.00000000E+00  0.00000000E+00
  0.00000000E+00  0.00000000E+00  0.00000000E+00
  0.00000000E+00  0.00000000E+00  0.00000000E+00
  0.00000000E+00  0.00000000E+00  0.00000000E+00
  0.00000000E+00  0.00000000E+00  0.00000000E+00
  0.00000000E+00  0.00000000E+00  0.00000000E+00
  0.00000000E+00  0.00000000E+00  0.00000000E+00
  0.00000000E+00  0.00000000E+00  0.00000000E+00
  0.00000000E+00  0.00000000E+00  0.00000000E+00
  0.00000000E+00  0.00000000E+00  0.00000000E+00
  0.00000000E+00  0.00000000E+00  0.00000000E+00
  0.00000000E+00  0.00000000E+00  0.00000000E+00
  0.00000000E+00  0.00000000E+00  0.00000000E+00
  0.00000000E+00  0.00000000E+00  0.00000000E+00
  0.00000000E+00  0.00000000E+00  0.00000000E+00
  0.00000000E+00  0.00000000E+00  0.00000000E+00
  0.00000000E+00  0.00000000E+00  0.00000000E+00
  0.00000000E+00  0.00000000E+00  0.00000000E+00
  0.00000000E+00  0.00000000E+00  0.00000000E+00
  0.00000000E+00  0.00000000E+00  0.00000000E+00
