NMC-811                                 
   1.00000000000000     
     5.6599418867302616   -0.0098472304574557   -0.0568660600785922
    -2.8661255921108975    4.9453848827262048    0.0232009799289180
    -0.1432031720949580   -0.0159677440822811   14.2606536202126932
   Li   Ni   O    Co   Mn
     7    10    24     1     1
Direct
  0.1717193187928632  0.3332067056754840  0.1654936116542557
  0.1643145455785028  0.8321802396700824  0.1694461452652914
  0.6670632804024057  0.8323172068904452  0.1654098664647393
  0.5053799315839080  0.9933582648036816  0.4990123174977322
  0.0025137338306109  0.5043447389629309  0.5004713604570931
  0.3294275119884812  0.1635233730709772  0.8330772396522589
  0.8253529559393059  0.6720539080434195  0.8346945006017449
  0.0034409298089154  0.9981198105062683  0.9993952893877054
  0.0025386949539224  0.4967089652400701  0.9977341737211065
  0.5041349705434187  0.9981788659488646  0.9974254433610250
  0.5041084550195917  0.4973951506042638  0.0027148854354524
  0.3322485169826071  0.1691579222863546  0.3351332750565409
  0.3315562517760388  0.6673642026571771  0.3330819272983015
  0.8304473554131652  0.6668122355668473  0.3350603344691200
  0.1659643470003566  0.3355444291918402  0.6672705782717864
  0.1659805924654741  0.8357814339027488  0.6672945303432858
  0.6660469804185096  0.3357999420854865  0.6670538770200396
  0.3309446282975590  0.1647048543287805  0.0712202135138473
  0.3281202848152918  0.6456174105804894  0.0733327799314546
  0.8504545310836291  0.1679612330575112  0.0668901265879342
  0.8337451580716183  0.6871553061112695  0.0757967443692527
  0.0082035118165325  0.0204849148820632  0.2565021823716004
  0.0041108319244431  0.5009369350822936  0.2596935315580955
  0.5017356113080554  0.9781883116362770  0.2552044483145253
  0.4876935461618046  0.4957341746311436  0.2658962404473493
  0.1504976591537157  0.3509946512734888  0.4062244603123362
  0.1768903657300835  0.8388353606394119  0.4017679783557083
  0.6625877009419222  0.3096075391485342  0.4064090809704923
  0.6642292729180572  0.8448349950511331  0.4022982504362699
  0.3267912167503345  0.1662547485746612  0.6006563066820148
  0.3360486048944190  0.6915650097960477  0.5946414759458122
  0.8229585739534665  0.1659852437778655  0.5989858588647510
  0.8304136548350334  0.6657313204873678  0.5996314690037603
  0.9956158944942584  0.9795732971595374  0.7401779523568651
  0.0049872821782210  0.5050069224814276  0.7338978517797670
  0.5020687998223101  0.0068538169833226  0.7348896829155731
  0.5093393065211100  0.5049812922624113  0.7354916210184762
  0.1847652938292094  0.3165893125591419  0.9281379793934472
  0.1547913259849494  0.8283320584650168  0.9303747908334047
  0.6709333163558625  0.3541620008138772  0.9292664211212469
  0.6689214431722933  0.8186659944876230  0.9319529708534475
  0.6660183319304386  0.8356971716258875  0.6672875610194187
  0.8310387815573068  0.1676218729964682  0.3305177330856581
 
  0.00000000E+00  0.00000000E+00  0.00000000E+00
  0.00000000E+00  0.00000000E+00  0.00000000E+00
  0.00000000E+00  0.00000000E+00  0.00000000E+00
  0.00000000E+00  0.00000000E+00  0.00000000E+00
  0.00000000E+00  0.00000000E+00  0.00000000E+00
  0.00000000E+00  0.00000000E+00  0.00000000E+00
  0.00000000E+00  0.00000000E+00  0.00000000E+00
  0.00000000E+00  0.00000000E+00  0.00000000E+00
  0.00000000E+00  0.00000000E+00  0.00000000E+00
  0.00000000E+00  0.00000000E+00  0.00000000E+00
  0.00000000E+00  0.00000000E+00  0.00000000E+00
  0.00000000E+00  0.00000000E+00  0.00000000E+00
  0.00000000E+00  0.00000000E+00  0.00000000E+00
  0.00000000E+00  0.00000000E+00  0.00000000E+00
  0.00000000E+00  0.00000000E+00  0.00000000E+00
  0.00000000E+00  0.00000000E+00  0.00000000E+00
  0.00000000E+00  0.00000000E+00  0.00000000E+00
  0.00000000E+00  0.00000000E+00  0.00000000E+00
  0.00000000E+00  0.00000000E+00  0.00000000E+00
  0.00000000E+00  0.00000000E+00  0.00000000E+00
  0.00000000E+00  0.00000000E+00  0.00000000E+00
  0.00000000E+00  0.00000000E+00  0.00000000E+00
  0.00000000E+00  0.00000000E+00  0.00000000E+00
  0.00000000E+00  0.00000000E+00  0.00000000E+00
  0.00000000E+00  0.00000000E+00  0.00000000E+00
  0.00000000E+00  0.00000000E+00  0.00000000E+00
  0.00000000E+00  0.00000000E+00  0.00000000E+00
  0.00000000E+00  0.00000000E+00  0.00000000E+00
  0.00000000E+00  0.00000000E+00  0.00000000E+00
  0.00000000E+00  0.00000000E+00  0.00000000E+00
  0.00000000E+00  0.00000000E+00  0.00000000E+00
  0.00000000E+00  0.00000000E+00  0.00000000E+00
  0.00000000E+00  0.00000000E+00  0.00000000E+00
  0.00000000E+00  0.00000000E+00  0.00000000E+00
  0.00000000E+00  0.00000000E+00  0.00000000E+00
  0.00000000E+00  0.00000000E+00  0.00000000E+00
  0.00000000E+00  0.00000000E+00  0.00000000E+00
  0.00000000E+00  0.00000000E+00  0.00000000E+00
  0.00000000E+00  0.00000000E+00  0.00000000E+00
  0.00000000E+00  0.00000000E+00  0.00000000E+00
  0.00000000E+00  0.00000000E+00  0.00000000E+00
  0.00000000E+00  0.00000000E+00  0.00000000E+00
  0.00000000E+00  0.00000000E+00  0.00000000E+00
