NMC-811                                 
   1.00000000000000     
     5.6493669870336243    0.0001143034646178    0.0076527469362734
    -2.8246462564220995    4.8930388814404573   -0.0053819606951515
     0.0182613639060823   -0.0036587293559804   13.3030546483981862
   Ni   O    Co   Mn
    10    24     1     1
Direct
  0.0032314192795110  0.0077659216754339  0.9989656966382934
  0.0032578099965478  0.5078086092593854  0.9990264642963241
  0.5032753977160123  0.0078020310890038  0.9989431161240285
  0.5032365291519378  0.5077645546467072  0.9987423521489275
  0.3339948089779958  0.1651384643920838  0.3340886760610007
  0.3341529713454000  0.6651787459781825  0.3342352540246958
  0.8341599407558149  0.6652604288062202  0.3341578969106547
  0.1629092612378173  0.3269926221600449  0.6669172628016484
  0.1629679954528205  0.8269792313309078  0.6671351287658167
  0.6630123506861836  0.3270379153905902  0.6669377002839697
  0.3365632483906039  0.1749759924919891  0.0695151125888905
  0.3365597537978656  0.6745147690276755  0.0695458263793760
  0.8362381812283411  0.1744947696959221  0.0697413525701026
  0.8358323800618861  0.6743492034546567  0.0695824706754196
  0.0024543171281549  0.9968654876613912  0.2621679435936159
  0.0030424294129882  0.5015234023563985  0.2623360639627411
  0.4980123058998415  0.9964666425330652  0.2622596122800737
  0.5013092558933719  0.4983422593477811  0.2636608625950638
  0.1695839851992773  0.3331377020945784  0.4060147375645353
  0.1671210487887698  0.8321907681974492  0.4046915382203701
  0.6652900570982372  0.3333923711117781  0.4059096933403700
  0.6656849267105883  0.8292730169953523  0.4060262520670536
  0.3299548129221464  0.1599680449747449  0.5963627793632608
  0.3310444235612949  0.6610322410195397  0.5969849207617990
  0.8296481922778320  0.1595268703307720  0.5967070023360579
  0.8298392363512800  0.6610020611491816  0.5969804065371692
  0.9944106187949142  0.9931618073521822  0.7369993760915007
  0.9957000039045093  0.4935052199728696  0.7377104600339405
  0.4967831584231919  0.9932387198268932  0.7370497322968069
  0.4962118702870609  0.4946337800589184  0.7370304557118371
  0.1698537462458302  0.3407963550135374  0.9282735286864082
  0.1701375420102218  0.8406788348025436  0.9283577109063728
  0.6704729638490931  0.3407337362338069  0.9282811534954690
  0.6702397032932039  0.8410000076583968  0.9282335457493943
  0.6629505977682058  0.8269445418269139  0.6669063094242021
  0.8340318831012135  0.1651867210831490  0.3340642097127948
 
  0.00000000E+00  0.00000000E+00  0.00000000E+00
  0.00000000E+00  0.00000000E+00  0.00000000E+00
  0.00000000E+00  0.00000000E+00  0.00000000E+00
  0.00000000E+00  0.00000000E+00  0.00000000E+00
  0.00000000E+00  0.00000000E+00  0.00000000E+00
  0.00000000E+00  0.00000000E+00  0.00000000E+00
  0.00000000E+00  0.00000000E+00  0.00000000E+00
  0.00000000E+00  0.00000000E+00  0.00000000E+00
  0.00000000E+00  0.00000000E+00  0.00000000E+00
  0.00000000E+00  0.00000000E+00  0.00000000E+00
  0.00000000E+00  0.00000000E+00  0.00000000E+00
  0.00000000E+00  0.00000000E+00  0.00000000E+00
  0.00000000E+00  0.00000000E+00  0.00000000E+00
  0.00000000E+00  0.00000000E+00  0.00000000E+00
  0.00000000E+00  0.00000000E+00  0.00000000E+00
  0.00000000E+00  0.00000000E+00  0.00000000E+00
  0.00000000E+00  0.00000000E+00  0.00000000E+00
  0.00000000E+00  0.00000000E+00  0.00000000E+00
  0.00000000E+00  0.00000000E+00  0.00000000E+00
  0.00000000E+00  0.00000000E+00  0.00000000E+00
  0.00000000E+00  0.00000000E+00  0.00000000E+00
  0.00000000E+00  0.00000000E+00  0.00000000E+00
  0.00000000E+00  0.00000000E+00  0.00000000E+00
  0.00000000E+00  0.00000000E+00  0.00000000E+00
  0.00000000E+00  0.00000000E+00  0.00000000E+00
  0.00000000E+00  0.00000000E+00  0.00000000E+00
  0.00000000E+00  0.00000000E+00  0.00000000E+00
  0.00000000E+00  0.00000000E+00  0.00000000E+00
  0.00000000E+00  0.00000000E+00  0.00000000E+00
  0.00000000E+00  0.00000000E+00  0.00000000E+00
  0.00000000E+00  0.00000000E+00  0.00000000E+00
  0.00000000E+00  0.00000000E+00  0.00000000E+00
  0.00000000E+00  0.00000000E+00  0.00000000E+00
  0.00000000E+00  0.00000000E+00  0.00000000E+00
  0.00000000E+00  0.00000000E+00  0.00000000E+00
  0.00000000E+00  0.00000000E+00  0.00000000E+00
