JVASP-14840 hcp Mg (P6_3/mmc)           
   1.0000000000000000     
     1.5826883128647211   -2.7414037928839163    0.0000001094511575
     1.5826883298812184    2.7414038027451952   -0.0000001329512050
    -0.0000000660782926   -0.0000001874475346    5.2160946116379918
  Mg            
     2
Direct
     0.3333337693403622    0.6666663207505926    0.2499999630410290
     0.6666662306596376    0.3333336792494074    0.7500000369589709

  0.00000000E+00  0.00000000E+00  0.00000000E+00
  0.00000000E+00  0.00000000E+00  0.00000000E+00
