System                                  
   1.0000000000000000     
     5.0974980164172745   -0.1802002513603516    7.7918173940075279
     2.1789888923930758    4.6279219668225293    7.7900024253729567
    -0.3422168008711908   -0.1971810703404349    9.3191741807202977
  Co              O             
     8    16
Direct
     0.9988984451797933    0.9991703218324631    0.9996116701433247
     0.0012829236005864    0.0005955504915366    0.5003503394273268
     0.0013037950424117    0.5006202574092019    0.0003766520330441
     0.9989115421948506    0.4992325906343515    0.4995152898871436
     0.5013232033403296    0.0005897418290775    0.0003753811066920
     0.4989325553832528    0.9991843102424787    0.4995209065885999
     0.4988922291818012    0.4991894669016942    0.9995826247217831
     0.5013385753256062    0.5006885628716238    0.5002923763287019
     0.1315530198950911    0.1343545669149176    0.1293296675495412
     0.1291419384408299    0.1297390620938731    0.6308621890556461
     0.1292141050971874    0.6297995989274500    0.1307624015311131
     0.1304451711642551    0.6325964361833478    0.6309241418350924
     0.6290610777111315    0.1298286755025598    0.1306572481955858
     0.6329039172503538    0.1307699819870540    0.6335305491074245
     0.6364352217796599    0.6297006456037606    0.1305190649556550
     0.6290326181220470    0.6297747673773207    0.6306949633104642
     0.3687912435709962    0.3685712241203158    0.3684758733664752
     0.3660939905860933    0.3714888469179169    0.8701607315744438
     0.3697537277182805    0.8704482034937872    0.3671187110132227
     0.3688403920040225    0.8686057465691382    0.8683981839593212
     0.8721167435103100    0.3687237209853210    0.3697016266737343
     0.8686417579622124    0.3686722811858836    0.8683708242672861
     0.8686266247900809    0.8686487306255710    0.3683625729138425
     0.8710111429031259    0.8667432614540639    0.8714385505279004

  0.00000000E+00  0.00000000E+00  0.00000000E+00
  0.00000000E+00  0.00000000E+00  0.00000000E+00
  0.00000000E+00  0.00000000E+00  0.00000000E+00
  0.00000000E+00  0.00000000E+00  0.00000000E+00
  0.00000000E+00  0.00000000E+00  0.00000000E+00
  0.00000000E+00  0.00000000E+00  0.00000000E+00
  0.00000000E+00  0.00000000E+00  0.00000000E+00
  0.00000000E+00  0.00000000E+00  0.00000000E+00
  0.00000000E+00  0.00000000E+00  0.00000000E+00
  0.00000000E+00  0.00000000E+00  0.00000000E+00
  0.00000000E+00  0.00000000E+00  0.00000000E+00
  0.00000000E+00  0.00000000E+00  0.00000000E+00
  0.00000000E+00  0.00000000E+00  0.00000000E+00
  0.00000000E+00  0.00000000E+00  0.00000000E+00
  0.00000000E+00  0.00000000E+00  0.00000000E+00
  0.00000000E+00  0.00000000E+00  0.00000000E+00
  0.00000000E+00  0.00000000E+00  0.00000000E+00
  0.00000000E+00  0.00000000E+00  0.00000000E+00
  0.00000000E+00  0.00000000E+00  0.00000000E+00
  0.00000000E+00  0.00000000E+00  0.00000000E+00
  0.00000000E+00  0.00000000E+00  0.00000000E+00
  0.00000000E+00  0.00000000E+00  0.00000000E+00
  0.00000000E+00  0.00000000E+00  0.00000000E+00
  0.00000000E+00  0.00000000E+00  0.00000000E+00
