System
1.0
5.389623527817884 0.004313305299975 8.898351352226626
2.481231194572928 4.845426478205289 8.898706074414587
-0.0033452341678574 0.0046787284063974 10.411003539810537
Co O 
8 16 
direct
0.9915425228204154 0.9921266467879665 0.9910100925418547 Co
0.009289274719155 0.0070480565805951 0.5090305706732461 Co
0.0094093175644864 0.5071141355162593 0.0077294136482552 Co
0.9922832442116107 0.4940173874211686 0.4925297380846667 Co
0.5078959392628296 0.0062952193149833 0.0071122704194669 Co
0.4907199174733525 0.9922073888931897 0.4919861409731101 Co
0.4908080089857719 0.4922320437198022 0.9912960397263841 Co
0.508728167657388 0.5081823443361944 0.5087169355655161 Co
0.1409683754273332 0.1392213661608035 0.1450723898110106 O
0.1265577505969397 0.1279081782184764 0.6272841101980546 O
0.1243542687476276 0.6277447285072285 0.1300424297004025 O
0.1426590641690522 0.6427661629921827 0.642520255166903 O
0.6248107690384541 0.1291578004388123 0.1260017702109535 O
0.6422933955267818 0.1443160783534277 0.6383149187936185 O
0.6433270437864486 0.6394258116446442 0.1428535268292899 O
0.6291107150077347 0.6279467274603107 0.6252332458704712 O
0.3604725362138575 0.3566747086925881 0.3573025720773205 O
0.3747249351000042 0.3681627132689566 0.8748793193537386 O
0.3763735597599255 0.8717755673766582 0.3709828890884497 O
0.3584321333431021 0.8559976953394319 0.8584793370496692 O
0.8747022175462035 0.3714127240081805 0.3723939656122805 O
0.857523597270192 0.3566256869552951 0.8601756261679365 O
0.8555317356297683 0.8642355524991064 0.3550869928597324 O
0.8700274718958608 0.8751418276684486 0.8728979896510105 O
