System                                  
   1.0000000000000000     
     9.9607399999999995    0.0001100000000000   -0.0000600000000000
     0.0000400000000000   12.9470899999999993    0.0015800000000000
     0.0000400000000000   -0.0010200000000000    9.4285399999999999
  Li              Mn              P               O             
    13    16    16    64
Direct
     0.5188783013370396    0.6248160702824099    0.6758825802288131
     0.2332643387240588    0.1252249412619326    0.1654361136466276
     0.2340126192473462    0.6252017353509409    0.1665217332128223
     0.7330144244591944    0.1253784937812421    0.1673162530078614
     0.7375237032315989    0.6252351622264117    0.1725234509254335
     0.4876807334393937    0.3733806863977183    0.3347247132261502
     0.4873051946431903    0.8768678286646854    0.3341477715655725
     0.9829770745954758    0.3741389391953638    0.3295864278600391
     0.9829401257499878    0.8752606246656662    0.3292967434828894
     0.2664584887132813    0.3749813963630442    0.8270674247229246
     0.2659973804518801    0.8762475368410442    0.8265866268035318
     0.7668953716725661    0.3739899449092842    0.8262894879906544
     0.7667333643022717    0.8764068689149469    0.8259429033526630
     0.5023987029723882    0.2480461572469205    0.9928909300442459
     0.5019623495047894    0.7501850254727045    0.9994403021040627
     0.0026915679293508    0.2483662118491258    0.9930527991984980
     0.0035478686322674    0.7485507548968364    0.9937919539514521
     0.2499160203701426    0.2483943594543715    0.5050322659288606
     0.2477710267645986    0.7473958824838420    0.5021682813766691
     0.7519986163530329    0.2470203234235100    0.5043525956790373
     0.7533305351898306    0.7492307649570699    0.5059706389870023
     0.0016669306447906    0.0014734380366287    0.9936938081003681
     0.0032393120245168    0.5009982106244290    0.9944833880231897
     0.5013352050758672    0.0021136903648624    0.9932592021369377
     0.5015142484198980    0.4996476043714416    0.0002659977878343
     0.2467433237251792    0.5038009690235890    0.5008005165886174
     0.2489210036756712    0.0022625398020376    0.5037969340334362
     0.7533663020720848    0.5011665674875028    0.5055591197324515
     0.7514893684706685    0.0032309825751021    0.5035082922006339
     0.2395092009195987    0.3738329005969339    0.1818649015587960
     0.2391148150444436    0.8757689792798017    0.1811584369686456
     0.7388843913399329    0.3746337477011489    0.1804054967949231
     0.7384044512554222    0.8753480758839364    0.1799135442067928
     0.0184343124129405    0.3771483724265565    0.6740808720590563
     0.0179939476890756    0.8725312620059462    0.6747350253360229
     0.5132594677328570    0.3799811589030316    0.6757988893671230
     0.5129771720281681    0.8697103916334773    0.6762588761303585
     0.2589142001175586    0.1259260704120916    0.8189764814319552
     0.2609288108939554    0.6251617482342737    0.8226349642657305
     0.7591570833597256    0.1254575210263890    0.8210331692574219
     0.7608019385062887    0.6247781949953382    0.8220241748092064
     0.4826249973798984    0.1245826373598852    0.3236358264843448
     0.4846155245564952    0.6249728384988110    0.3219806745256533
     0.9866328177141297    0.1245722490299814    0.3206248459447921
     0.9883255578016384    0.6250463329554374    0.3203337905684355
     0.0835713155090964    0.2804454659889645    0.6087812811483257
     0.0832564177828058    0.7742966746227775    0.6157699660541709
     0.5845925758217873    0.2883749934415803    0.6081551435307585
     0.5723759238754369    0.7668380297732159    0.6223634723424122
     0.1718527962516920    0.2758924300501846    0.1222984540057771
     0.1724342074534562    0.7766216626327455    0.1242036042657876
     0.6703943135424915    0.2766431567943280    0.1212673625661879
     0.6722238692506722    0.7755167093648705    0.1234441383216260
     0.3273524192047306    0.2253629189803742    0.8750551603445781
     0.3288621376623714    0.7247327662767961    0.8794055095649257
     0.8275708844696863    0.2251368406909077    0.8767357668209718
     0.8262192244614610    0.7244198593019883    0.8797972195720423
     0.4150412590262224    0.2231126537948364    0.3849115967052925
     0.4173084332335282    0.7237798459692555    0.3820835934455548
     0.9185349015098309    0.2232908310380434    0.3789017507802456
     0.9217532730284859    0.7242888060580981    0.3772921220266078
     0.3282135548766800    0.0259928128192630    0.8723802693586085
     0.3293870811782744    0.5253685158049175    0.8780170949559568
     0.8280348730276728    0.0253414843758613    0.8746768841560579
     0.8261869446581267    0.5248758584310709    0.8787241339464631
     0.4172872250826826    0.0255295446658936    0.3842378954071055
     0.4183697276372029    0.5258638032430449    0.3818198649691553
     0.9207220655155696    0.0253916137874039    0.3790516302846432
     0.9225672557126420    0.5254874981853856    0.3774232348519009
     0.3925107277286164    0.3734777168289153    0.1443731111841381
     0.3921487208353844    0.8758358315323458    0.1435827852527870
     0.8913585475766123    0.3737220137546839    0.1396397517253641
     0.8908899623975867    0.8760949649751596    0.1390421453274734
     0.2708504047872074    0.1267925339314649    0.6522057527910807
     0.2884637908405369    0.6256138717733752    0.6564281940459255
     0.7682999113533814    0.1260659101863162    0.6554145017941038
     0.7701904722218020    0.6251230196444054    0.6565436559906749
     0.1120560863093524    0.1252687232092915    0.8780777422251689
     0.1128806619415757    0.6248664381782134    0.8740624327656960
     0.6124821062591831    0.1251395839039743    0.8816706634610165
     0.6085500630775538    0.6248485292175592    0.8708428787432481
     0.1400470468501162    0.1254323936224785    0.3560887116129103
     0.1421926423796105    0.6252995364819918    0.3571569520444470
     0.6359448573574670    0.1255628087704856    0.3562341908737298
     0.6373085171821464    0.6253076809174188    0.3581900114437985
     0.0438149684619243    0.3740481797085602    0.8401522390590858
     0.0428417760647722    0.8742668839288370    0.8411035368037089
     0.5388842417791412    0.3754957159464608    0.8419649124789762
     0.5377900026154495    0.8738671683596831    0.8427636562580034
     0.2144686353170751    0.3727456788869655    0.3500299104203869
     0.2137430618072607    0.8762718067485620    0.3488696335945966
     0.7153194017523240    0.3739371333332100    0.3472393091163904
     0.7146877441450912    0.8756691648606358    0.3464277789749206
     0.1736894656513506    0.4732001891646604    0.1250783993960126
     0.1726918732924680    0.9740698959774567    0.1211664409782227
     0.6731085620028594    0.4745262065515187    0.1239991051605198
     0.6704495954249532    0.9735221248746609    0.1204594408184003
     0.4537946963715602    0.1251541002756505    0.1583285768120285
     0.4570844379307032    0.6251975365998462    0.1566212411027028
     0.9602907369442656    0.1249062541774703    0.1545141583129544
     0.9637493363997941    0.6250460422367026    0.1538901767764959
     0.3594214304105069    0.3756279586184244    0.6380637885045561
     0.3591698056592625    0.8735330300587980    0.6379406607153327
     0.8646001053196344    0.3760858160362546    0.6381729937869850
     0.8642563345211675    0.8728076070259527    0.6384729215088125
     0.0835332561419864    0.4757277536582087    0.6172055918689529
     0.0838955183079291    0.9696749674288966    0.6130525776821673
     0.5725138581017135    0.4829315458979734    0.6222718653284850
     0.5849824391292731    0.9615418549802406    0.6106669343603141

  0.00000000E+00  0.00000000E+00  0.00000000E+00
  0.00000000E+00  0.00000000E+00  0.00000000E+00
  0.00000000E+00  0.00000000E+00  0.00000000E+00
  0.00000000E+00  0.00000000E+00  0.00000000E+00
  0.00000000E+00  0.00000000E+00  0.00000000E+00
  0.00000000E+00  0.00000000E+00  0.00000000E+00
  0.00000000E+00  0.00000000E+00  0.00000000E+00
  0.00000000E+00  0.00000000E+00  0.00000000E+00
  0.00000000E+00  0.00000000E+00  0.00000000E+00
  0.00000000E+00  0.00000000E+00  0.00000000E+00
  0.00000000E+00  0.00000000E+00  0.00000000E+00
  0.00000000E+00  0.00000000E+00  0.00000000E+00
  0.00000000E+00  0.00000000E+00  0.00000000E+00
  0.00000000E+00  0.00000000E+00  0.00000000E+00
  0.00000000E+00  0.00000000E+00  0.00000000E+00
  0.00000000E+00  0.00000000E+00  0.00000000E+00
  0.00000000E+00  0.00000000E+00  0.00000000E+00
  0.00000000E+00  0.00000000E+00  0.00000000E+00
  0.00000000E+00  0.00000000E+00  0.00000000E+00
  0.00000000E+00  0.00000000E+00  0.00000000E+00
  0.00000000E+00  0.00000000E+00  0.00000000E+00
  0.00000000E+00  0.00000000E+00  0.00000000E+00
  0.00000000E+00  0.00000000E+00  0.00000000E+00
  0.00000000E+00  0.00000000E+00  0.00000000E+00
  0.00000000E+00  0.00000000E+00  0.00000000E+00
  0.00000000E+00  0.00000000E+00  0.00000000E+00
  0.00000000E+00  0.00000000E+00  0.00000000E+00
  0.00000000E+00  0.00000000E+00  0.00000000E+00
  0.00000000E+00  0.00000000E+00  0.00000000E+00
  0.00000000E+00  0.00000000E+00  0.00000000E+00
  0.00000000E+00  0.00000000E+00  0.00000000E+00
  0.00000000E+00  0.00000000E+00  0.00000000E+00
  0.00000000E+00  0.00000000E+00  0.00000000E+00
  0.00000000E+00  0.00000000E+00  0.00000000E+00
  0.00000000E+00  0.00000000E+00  0.00000000E+00
  0.00000000E+00  0.00000000E+00  0.00000000E+00
  0.00000000E+00  0.00000000E+00  0.00000000E+00
  0.00000000E+00  0.00000000E+00  0.00000000E+00
  0.00000000E+00  0.00000000E+00  0.00000000E+00
  0.00000000E+00  0.00000000E+00  0.00000000E+00
  0.00000000E+00  0.00000000E+00  0.00000000E+00
  0.00000000E+00  0.00000000E+00  0.00000000E+00
  0.00000000E+00  0.00000000E+00  0.00000000E+00
  0.00000000E+00  0.00000000E+00  0.00000000E+00
  0.00000000E+00  0.00000000E+00  0.00000000E+00
  0.00000000E+00  0.00000000E+00  0.00000000E+00
  0.00000000E+00  0.00000000E+00  0.00000000E+00
  0.00000000E+00  0.00000000E+00  0.00000000E+00
  0.00000000E+00  0.00000000E+00  0.00000000E+00
  0.00000000E+00  0.00000000E+00  0.00000000E+00
  0.00000000E+00  0.00000000E+00  0.00000000E+00
  0.00000000E+00  0.00000000E+00  0.00000000E+00
  0.00000000E+00  0.00000000E+00  0.00000000E+00
  0.00000000E+00  0.00000000E+00  0.00000000E+00
  0.00000000E+00  0.00000000E+00  0.00000000E+00
  0.00000000E+00  0.00000000E+00  0.00000000E+00
  0.00000000E+00  0.00000000E+00  0.00000000E+00
  0.00000000E+00  0.00000000E+00  0.00000000E+00
  0.00000000E+00  0.00000000E+00  0.00000000E+00
  0.00000000E+00  0.00000000E+00  0.00000000E+00
  0.00000000E+00  0.00000000E+00  0.00000000E+00
  0.00000000E+00  0.00000000E+00  0.00000000E+00
  0.00000000E+00  0.00000000E+00  0.00000000E+00
  0.00000000E+00  0.00000000E+00  0.00000000E+00
  0.00000000E+00  0.00000000E+00  0.00000000E+00
  0.00000000E+00  0.00000000E+00  0.00000000E+00
  0.00000000E+00  0.00000000E+00  0.00000000E+00
  0.00000000E+00  0.00000000E+00  0.00000000E+00
  0.00000000E+00  0.00000000E+00  0.00000000E+00
  0.00000000E+00  0.00000000E+00  0.00000000E+00
  0.00000000E+00  0.00000000E+00  0.00000000E+00
  0.00000000E+00  0.00000000E+00  0.00000000E+00
  0.00000000E+00  0.00000000E+00  0.00000000E+00
  0.00000000E+00  0.00000000E+00  0.00000000E+00
  0.00000000E+00  0.00000000E+00  0.00000000E+00
  0.00000000E+00  0.00000000E+00  0.00000000E+00
  0.00000000E+00  0.00000000E+00  0.00000000E+00
  0.00000000E+00  0.00000000E+00  0.00000000E+00
  0.00000000E+00  0.00000000E+00  0.00000000E+00
  0.00000000E+00  0.00000000E+00  0.00000000E+00
  0.00000000E+00  0.00000000E+00  0.00000000E+00
  0.00000000E+00  0.00000000E+00  0.00000000E+00
  0.00000000E+00  0.00000000E+00  0.00000000E+00
  0.00000000E+00  0.00000000E+00  0.00000000E+00
  0.00000000E+00  0.00000000E+00  0.00000000E+00
  0.00000000E+00  0.00000000E+00  0.00000000E+00
  0.00000000E+00  0.00000000E+00  0.00000000E+00
  0.00000000E+00  0.00000000E+00  0.00000000E+00
  0.00000000E+00  0.00000000E+00  0.00000000E+00
  0.00000000E+00  0.00000000E+00  0.00000000E+00
  0.00000000E+00  0.00000000E+00  0.00000000E+00
  0.00000000E+00  0.00000000E+00  0.00000000E+00
  0.00000000E+00  0.00000000E+00  0.00000000E+00
  0.00000000E+00  0.00000000E+00  0.00000000E+00
  0.00000000E+00  0.00000000E+00  0.00000000E+00
  0.00000000E+00  0.00000000E+00  0.00000000E+00
  0.00000000E+00  0.00000000E+00  0.00000000E+00
  0.00000000E+00  0.00000000E+00  0.00000000E+00
  0.00000000E+00  0.00000000E+00  0.00000000E+00
  0.00000000E+00  0.00000000E+00  0.00000000E+00
  0.00000000E+00  0.00000000E+00  0.00000000E+00
  0.00000000E+00  0.00000000E+00  0.00000000E+00
  0.00000000E+00  0.00000000E+00  0.00000000E+00
  0.00000000E+00  0.00000000E+00  0.00000000E+00
  0.00000000E+00  0.00000000E+00  0.00000000E+00
  0.00000000E+00  0.00000000E+00  0.00000000E+00
  0.00000000E+00  0.00000000E+00  0.00000000E+00
  0.00000000E+00  0.00000000E+00  0.00000000E+00
  0.00000000E+00  0.00000000E+00  0.00000000E+00
