System
1.0
9.897317950528732 -0.0029271268046785 -0.0007080970859342
0.0041209076868966 12.699359464741258 -0.0001603373987241
0.0006672815599464 0.000126383522056 9.369809233586876
Li Fe P O 
9 16 16 64 
direct
0.2395167045935696 0.1260410545812153 0.1716936410322781 Li
0.7419435680246075 0.1233318322867331 0.1731747024073744 Li
0.4875467764702644 0.8727156059753902 0.3156322850020087 Li
0.985615693543752 0.8717577649896978 0.318365295344826 Li
0.0050205106987536 0.6228933068505199 0.6750780915652184 Li
0.5090758923429529 0.6242413519721759 0.6746525634911459 Li
0.2694389838347599 0.3737762623652355 0.842454055114197 Li
0.2634654770968896 0.8758137987795405 0.8288466414333548 Li
0.7775459732260772 0.3741967198826194 0.8390844492211926 Li
1.0002777317985723 0.0044946414771299 0.9911457932930908 Fe
0.9967813505496593 0.4998032127165272 0.0151619750218911 Fe
0.5011341464719522 0.0041158027222386 0.9916537829576402 Fe
0.497099273531719 0.4981800660529364 0.0162102152838993 Fe
0.0035707990190664 0.2488232219569781 1.0015929159343122 Fe
0.9961715161897858 0.7474474639113039 0.0048729841050538 Fe
0.5035847575860113 0.2448215000556483 0.9985665101018575 Fe
0.496496170352879 0.7493179492573212 0.0009060907618191 Fe
0.2505365476846526 0.0012606534907368 0.50145132458422 Fe
0.2311134024966406 0.5111896469011743 0.4751991840787354 Fe
0.7518948772583576 0.0007579664916731 0.5019260773348677 Fe
0.7352000232017354 0.5055528309501447 0.484722171911022 Fe
0.2712822565618846 0.2581446339441827 0.5138647257216294 Fe
0.2459861655004631 0.7503966555024446 0.4924680808986596 Fe
0.7666493299745613 0.2608143799871958 0.5100326696017333 Fe
0.7434549227485339 0.7452552522706161 0.4926187726520181 Fe
0.2608003578697779 0.1249009890102925 0.8175144553685105 P
0.2632610542159338 0.6239943723324427 0.8214611392645176 P
0.7607700385743994 0.1251697883026643 0.8154913559303751 P
0.760888074776665 0.6229784054176825 0.8273186352585898 P
0.0251420426472541 0.3757621615200363 0.6718070978987102 P
0.0151573984919597 0.870313653011728 0.6734218967133137 P
0.5208844646137417 0.380809544915293 0.6783238403700657 P
0.5142485808648926 0.8708098471400767 0.6720544401010515 P
0.4875458575635481 0.1183375918326626 0.3322274988905555 P
0.4794214086419157 0.6305212333354439 0.318899610710897 P
0.9879963391926999 0.1191428036869406 0.3330304718575024 P
0.9788781202248593 0.6287246475062668 0.3227671054949191 P
0.2404802856825194 0.372385389398916 0.1813846992381297 P
0.2329773660099593 0.8848997556367526 0.1748295240390349 P
0.7368666207238127 0.3627235456276224 0.1782019984081633 P
0.7321391941747357 0.8835745586796487 0.1766105053741707 P
0.1124789702489176 0.1272989083263711 0.8702415174203164 O
0.111348072146343 0.6215679996022411 0.8599840193848 O
0.6120498263231092 0.1257611328941576 0.8677045545799653 O
0.607117510824942 0.6177644778865066 0.8719367724663202 O
0.0496118768594938 0.3746206524003702 0.8365053531137154 O
0.0365000435439143 0.8747763994622848 0.8389761279425558 O
0.5408593217775798 0.3800467781873499 0.8461178739224293 O
0.5375389482983919 0.8753762596826056 0.8373988697187587 O
0.2767748001900571 0.1249541376636348 0.6454005844153492 O
0.2903581973118715 0.6186646635616172 0.65297829405713 O
0.7751878380139221 0.1254446483798558 0.6432346488209371 O
0.7834320841383813 0.6255705494466618 0.6603407752187166 O
0.3664371653536174 0.3672376266335268 0.6389181917012448 O
0.3603724462527309 0.8814261836880337 0.628424573997618 O
0.8705098084356794 0.3675290203278329 0.6347420002825134 O
0.861720863648626 0.8799617909930133 0.6293911353451874 O
0.1024667251116715 0.2841170366695371 0.6036280079461409 O
0.0751321698721912 0.7655144873635559 0.6193838851631671 O
0.6037921690357848 0.2896031611400716 0.6160825682928837 O
0.5697648749374487 0.7652012989963319 0.6165712614792203 O
0.0828731253135042 0.4807301073956757 0.6114241631814006 O
0.0947838294116749 0.9628340525529049 0.6079767678891208 O
0.5728148856065486 0.4857782525085083 0.6194381479178949 O
0.5948118135836056 0.9624936879254088 0.6064877091344903 O
0.4194006889853384 0.0162715770771421 0.3902242430557057 O
0.4001304621131969 0.5387188030600345 0.3876019051751053 O
0.9201210106389901 0.0161576475765371 0.3886630643268187 O
0.9080215446709806 0.5338515119019444 0.3869480700767405 O
0.1773126165263034 0.2671773214040923 0.1321457552259966 O
0.1597910671599576 0.7886111261249715 0.1185837761799334 O
0.6704128349072366 0.2590951809116736 0.1270108158636518 O
0.6541569609676879 0.788374231784028 0.1228078548845298 O
0.1430216608449977 0.1170744411726223 0.3722197472989868 O
0.131737008542376 0.6252462098824564 0.3817518513214412 O
0.642381789363408 0.1160637136218298 0.3711807765018236 O
0.6266838042061887 0.6272109460963049 0.3739029051136986 O
0.2354092834832982 0.3737140729493973 0.3541966242488074 O
0.2082818398970926 0.8856786767185767 0.3455319704051546 O
0.7282830486275479 0.3650897694752009 0.3472517106692254 O
0.7091340367332359 0.8846806487464529 0.3470398089249838 O
0.4554319931996689 0.1232144000227357 0.1688316679150418 O
0.4685331443109808 0.6188185277907157 0.1512607661231208 O
0.9591983198725962 0.1251661042782416 0.1687880452512548 O
0.97443223472973 0.6267225226779892 0.1583025798904191 O
0.3887830229273371 0.3774652163635416 0.1178688112608984 O
0.3855281967240974 0.8832123074415642 0.1331452192939268 O
0.8823537614626789 0.3686089760161077 0.1168141218593061 O
0.8843049289161605 0.8800436569084171 0.1348140757977402 O
0.3338247038011722 0.2245729723393202 0.872357225807854 O
0.3303338883866736 0.7272824956694077 0.8728887056158043 O
0.8337592512407653 0.224622975608276 0.8704564332129284 O
0.824728787375782 0.7258578783547668 0.8850665446266968 O
0.1632642382006663 0.4675851776284493 0.1290924973177702 O
0.1684965636992886 0.9879136316413555 0.1190186720844644 O
0.6555386597656848 0.4574802294060698 0.119401978284592 O
0.6696726526318932 0.9870542939000552 0.1195225250464172 O
0.420447967419398 0.2142998868072987 0.4024736640331736 O
0.4130802231081887 0.7359451771166021 0.362962031650356 O
0.9183504748135226 0.2135509026338929 0.4031987851095165 O
0.9188250012234583 0.734316255426616 0.3767089999046793 O
0.3293606592500501 0.0227649981541815 0.8698219248093174 O
0.3377720764212842 0.526529989637386 0.8862122738345372 O
0.8298248011138721 0.0231076440802596 0.8682085278697181 O
0.8336286576660424 0.5231461909897538 0.8819208348995743 O
