System                                  
   1.0000000000000000     
     5.4416373809116090    0.0217757098330570    8.2672587848195054
     2.4928065815327951    4.8371185104134495    8.2672481917299301
     0.0355712714060299    0.0218025290524179    9.8974798618930890
  Li              Co              O             
     8     8    16
Direct
     0.2500005254734414    0.2500014795932154    0.2499983970196194
     0.2500005917970907    0.2499991327723230    0.7500007394024373
     0.2500010160127198    0.7499991298194647    0.2499994785288184
     0.2500007554769320    0.7499990874783462    0.7500001704874991
     0.7499999208663624    0.2499990307798108    0.2500000901093690
     0.7500008095540641    0.2499985137963916    0.7500000225484325
     0.7500003853373116    0.7499985517857801    0.2499994601139329
     0.7500007201097129    0.7499983252518815    0.7500007620375598
    -0.0000043527153112   -0.0000070524464171   -0.0000058068580935
     0.0000058487799379    0.0000041037329430    0.5000043154584340
     0.0000054909906060    0.5000029706945144    0.0000052682443283
    -0.0000053763434601    0.4999936580903041    0.4999944798603473
     0.5000042470305202    0.0000040479043557    0.0000055935335386
     0.4999948426927148   -0.0000072184288201    0.4999950457736490
     0.4999945401433255    0.4999937921230622   -0.0000061635055290
     0.5000058895352606    0.5000042661117124    0.5000047333747252
     0.1297294708343861    0.1297288415494687    0.1297359243659047
     0.1297350529558632    0.1297308685100825    0.6297432882088557
     0.1297361572795301    0.6297348269713626    0.1297394708933157
     0.1297292677288125    0.6297261501070105    0.6297376063986495
     0.6297353070360876    0.1297333287204200    0.1297409612483758
     0.6297297196635677    0.1297278522449986    0.6297360150027214
     0.6297307642537014    0.6297259340768036    0.1297362387250619
     0.6297329624020922    0.6297335745159157    0.6297432627077746
     0.3702724003325822    0.3702713284704067    0.3702630479316663
     0.3702648322114375    0.3702681267884634    0.8702578535314736
     0.3702658244041976    0.8702646307231460    0.3702594130688421
     0.3702707509097751    0.8702718515026090    0.8702645200215947
     0.8702650505105159    0.3702675933156048    0.3702578339531504
     0.8702702350367006    0.3702704797784802    0.8702653706694043
     0.8702708392156024    0.8702733538088726    0.3702629379978579
     0.8702667375166772    0.8702646900781167    0.8702587180612339

  0.00000000E+00  0.00000000E+00  0.00000000E+00
  0.00000000E+00  0.00000000E+00  0.00000000E+00
  0.00000000E+00  0.00000000E+00  0.00000000E+00
  0.00000000E+00  0.00000000E+00  0.00000000E+00
  0.00000000E+00  0.00000000E+00  0.00000000E+00
  0.00000000E+00  0.00000000E+00  0.00000000E+00
  0.00000000E+00  0.00000000E+00  0.00000000E+00
  0.00000000E+00  0.00000000E+00  0.00000000E+00
  0.00000000E+00  0.00000000E+00  0.00000000E+00
  0.00000000E+00  0.00000000E+00  0.00000000E+00
  0.00000000E+00  0.00000000E+00  0.00000000E+00
  0.00000000E+00  0.00000000E+00  0.00000000E+00
  0.00000000E+00  0.00000000E+00  0.00000000E+00
  0.00000000E+00  0.00000000E+00  0.00000000E+00
  0.00000000E+00  0.00000000E+00  0.00000000E+00
  0.00000000E+00  0.00000000E+00  0.00000000E+00
  0.00000000E+00  0.00000000E+00  0.00000000E+00
  0.00000000E+00  0.00000000E+00  0.00000000E+00
  0.00000000E+00  0.00000000E+00  0.00000000E+00
  0.00000000E+00  0.00000000E+00  0.00000000E+00
  0.00000000E+00  0.00000000E+00  0.00000000E+00
  0.00000000E+00  0.00000000E+00  0.00000000E+00
  0.00000000E+00  0.00000000E+00  0.00000000E+00
  0.00000000E+00  0.00000000E+00  0.00000000E+00
  0.00000000E+00  0.00000000E+00  0.00000000E+00
  0.00000000E+00  0.00000000E+00  0.00000000E+00
  0.00000000E+00  0.00000000E+00  0.00000000E+00
  0.00000000E+00  0.00000000E+00  0.00000000E+00
  0.00000000E+00  0.00000000E+00  0.00000000E+00
  0.00000000E+00  0.00000000E+00  0.00000000E+00
  0.00000000E+00  0.00000000E+00  0.00000000E+00
  0.00000000E+00  0.00000000E+00  0.00000000E+00
