System
1.0
5.434072847126083 0.0841120395189911 8.447672946844177
2.5071806126250853 4.909054154966764 8.471279547557307
0.0429363097397404 0.0766854352335948 10.108380087992558
Li Co O 
2 8 16 
direct
0.7382001561013056 0.2531387917915272 0.7528131671519183 Li
0.7426672645696413 0.7567559184764544 0.7583324621655323 Li
0.002217895975385 0.9995004021090305 0.0001580404646191 Co
0.0050247959120447 0.9991113972241845 0.4997913999260039 Co
0.0047593946207988 0.5013972211503103 0.0020717865566586 Co
0.0021859616934132 0.5003669074041991 0.4992865825949283 Co
0.4994918059455883 0.9980905937939093 0.9997491441147016 Co
0.4985912341790043 0.9964991695796004 0.4965742605266261 Co
0.5002041106499169 0.4989358024224404 0.9986217379262086 Co
0.4994973193198077 0.4990045263270278 0.4988381740027963 Co
0.1211485573732661 0.1417583643582054 0.1363778020924958 O
0.1216006156194751 0.1376809164985305 0.6378572237095907 O
0.1250425534960583 0.6386036934959503 0.1394539484095373 O
0.1211654625053221 0.6356021676338888 0.6425198188277784 O
0.6394842168765293 0.1297572310434202 0.1280393782132042 O
0.6409096558315522 0.125567940305397 0.6262941575476558 O
0.6440612194963865 0.6246695306901024 0.1253928848513258 O
0.6401748026454851 0.6278673600341653 0.6288726281115248 O
0.3756938713543999 0.3550893526073564 0.3681023328763876 O
0.3768413854060816 0.3620774222474799 0.8627427000717783 O
0.3700220395608508 0.8632719514899551 0.3638663401393798 O
0.3763456079429078 0.8679877553360034 0.8543919836483665 O
0.8693485373200148 0.3626631599912408 0.3720143245069654 O
0.8716285589413604 0.3673732298967841 0.8662277176851546 O
0.8620096574099703 0.8713007079413007 0.3709233511294446 O
0.8693335515836285 0.8713961010646166 0.8632893663482591 O
