System                                  
   1.0000000000000000     
     5.4397212130770711    0.0372114819747816    8.3314936506925452
     2.5034059572240248    4.8261180838072848    8.3324556657671405
     0.0565657200914159    0.0371661961646257    9.9624952870273589
  Li              Co              O             
     5     8    16
Direct
     0.2513287688526183    0.2472792514905273    0.2514020390256356
     0.2505851966306151    0.2482989815039017    0.7512720019981465
     0.7500058935630729    0.2489052923507604    0.2512388615745337
     0.7508731481194305    0.2498411629738430    0.7495756003158276
     0.7485510616772224    0.7505454612444360    0.7508221888431564
     0.0004958843632064    0.9986742197115018    0.9992644895119285
     0.0003180656347586    0.9978000173823229    0.4992124000378412
     0.0012225076855909    0.5024485879966349    0.0023775818340149
     0.0012104144154970    0.5022700882573838    0.4984568106273924
     0.4992352787136707    0.9977785084716875    1.0013961138227079
     0.4987235696040408    0.9979257131920598    0.4976851737749926
     0.5001426484408957    0.5018727755527388    1.0001493914135480
     0.4995906869056646    0.5015430519691887    0.5002902169592617
     0.1295614059121268    0.1394176456231278    0.1248789620572606
     0.1232711887002707    0.1427225247339868    0.6268399258035969
     0.1349693612633652    0.6253543497620069    0.1380329487378717
     0.1279530732933110    0.6237253611102803    0.6431788799873303
     0.6281648852983732    0.1412794755955572    0.1238434528234621
     0.6260048410007555    0.1293467270604269    0.6327110039635196
     0.6385810493210721    0.6272767471149084    0.1287345611898110
     0.6402592928189726    0.6219370873959488    0.6357029036807290
     0.3703410851340413    0.3641825469729004    0.3718448652988683
     0.3754362623195712    0.3586131819441378    0.8730564900818460
     0.3670218777000268    0.8743103919954945    0.3601491791197646
     0.3716239245258824    0.8733080653883248    0.8603235617279001
     0.8715670439128486    0.3623953301645435    0.3726969837622539
     0.8727956237672883    0.3710740895377308    0.8679403538279398
     0.8632793624411239    0.8717820943115721    0.3702646065420208
     0.8597179611707970    0.8755415328859235    0.8670166985643988

  0.00000000E+00  0.00000000E+00  0.00000000E+00
  0.00000000E+00  0.00000000E+00  0.00000000E+00
  0.00000000E+00  0.00000000E+00  0.00000000E+00
  0.00000000E+00  0.00000000E+00  0.00000000E+00
  0.00000000E+00  0.00000000E+00  0.00000000E+00
  0.00000000E+00  0.00000000E+00  0.00000000E+00
  0.00000000E+00  0.00000000E+00  0.00000000E+00
  0.00000000E+00  0.00000000E+00  0.00000000E+00
  0.00000000E+00  0.00000000E+00  0.00000000E+00
  0.00000000E+00  0.00000000E+00  0.00000000E+00
  0.00000000E+00  0.00000000E+00  0.00000000E+00
  0.00000000E+00  0.00000000E+00  0.00000000E+00
  0.00000000E+00  0.00000000E+00  0.00000000E+00
  0.00000000E+00  0.00000000E+00  0.00000000E+00
  0.00000000E+00  0.00000000E+00  0.00000000E+00
  0.00000000E+00  0.00000000E+00  0.00000000E+00
  0.00000000E+00  0.00000000E+00  0.00000000E+00
  0.00000000E+00  0.00000000E+00  0.00000000E+00
  0.00000000E+00  0.00000000E+00  0.00000000E+00
  0.00000000E+00  0.00000000E+00  0.00000000E+00
  0.00000000E+00  0.00000000E+00  0.00000000E+00
  0.00000000E+00  0.00000000E+00  0.00000000E+00
  0.00000000E+00  0.00000000E+00  0.00000000E+00
  0.00000000E+00  0.00000000E+00  0.00000000E+00
  0.00000000E+00  0.00000000E+00  0.00000000E+00
  0.00000000E+00  0.00000000E+00  0.00000000E+00
  0.00000000E+00  0.00000000E+00  0.00000000E+00
  0.00000000E+00  0.00000000E+00  0.00000000E+00
  0.00000000E+00  0.00000000E+00  0.00000000E+00
