System
1.0
5.436079600616395 0.0291978352553374 8.317529258305404
2.496612040816453 4.828232184660886 8.317372234279057
0.048826583500511 0.0298672948784111 9.950521295780003
Li Co O 
5 8 16 
direct
0.252595855358607 0.2473116870744001 0.2493212817626095 Li
0.2525223015838635 0.2451580108722617 0.7528677261694123 Li
0.7500157139333965 0.2502966888186997 0.2513299307137531 Li
0.7486521244490004 0.2489392753211581 0.7519763713970823 Li
0.7449678875744453 0.7523612259581305 0.7532316619173244 Li
0.0014553403481987 0.9992761751736716 0.9992322433590141 Co
0.0008766040394529 0.9990116763922549 0.500052398576636 Co
0.0018178502217502 0.5016764730704699 1.000561376108621 Co
0.0022807242436912 0.5022746152457114 0.4996151959105633 Co
0.4983494505001306 0.9981494761897527 0.9996989328412292 Co
0.4983417676084988 0.9983183559931257 0.4990316582761577 Co
0.4992867760653699 0.50143862409486 0.9992327396598082 Co
0.4988965054482513 0.500945783492617 0.5001514549580481 Co
0.1268169999508178 0.1400570576618411 0.1274106438691739 O
0.1226527179506227 0.1439135409188808 0.626948241494385 O
0.1268682977021918 0.6268460291478142 0.1411099007901208 O
0.1277717313527686 0.6269383557525878 0.6408096787398097 O
0.6306966698289148 0.1305063098459621 0.1264107527028892 O
0.6294060906633792 0.1300923696247619 0.629046107478577 O
0.6391888783838398 0.6259330392889073 0.1288158340516465 O
0.6439198570219651 0.6226376608066047 0.6269642755129754 O
0.3708936064257551 0.3643126513467806 0.3709842726693292 O
0.374599049767384 0.3601373279772285 0.8714096291453662 O
0.3727944860558836 0.8721226454215019 0.3597609659155229 O
0.372492275350057 0.8725810759458642 0.8608206446071256 O
0.8696847152158307 0.3706495027945559 0.3709320616536397 O
0.8712660448907547 0.3712382833092938 0.8688642607296221 O
0.8643177575694334 0.8708787234313362 0.371000770816234 O
0.8594032836818652 0.8734476227228205 0.8727672350808794 O
