System
1.0
9.96074 0.00011 -6e-05
4e-05 12.94709 0.00158
4e-05 -0.00102 9.42854
Mn P O 
16 16 64 
direct
0.5124439848929205 0.246926648182225 0.9850592146568128 Mn
0.4790323876504777 0.7528707943663223 0.0266458789086193 Mn
0.0189042514964195 0.2454259185919342 0.9849510676854472 Mn
0.9793549119981698 0.7538367383332818 0.0268696714853968 Mn
0.242418151893438 0.2422100855790651 0.4777514442036007 Mn
0.248659842331747 0.7480034372002176 0.5194960304426727 Mn
0.7417670465087585 0.2453891653748759 0.4730669186777341 Mn
0.747400111018414 0.7486779459725339 0.5192342683780058 Mn
0.0072839174776766 0.0032385264483424 0.9745372057259247 Mn
0.0061238163884894 0.5011962112443822 0.020059749233514 Mn
0.495096727600404 1.0008164925894807 0.9880277042999323 Mn
0.5051795361669617 0.500344283279606 0.0210086232446717 Mn
0.2724387437099304 0.4955528632213346 0.5271735522262979 Mn
0.234731084770006 0.9984978174536043 0.4876502390624013 Mn
0.7681103326437713 0.5002626215351749 0.5103655051082469 Mn
0.7353946598673093 0.0011773015376201 0.4825748475412785 Mn
0.2369883039512476 0.379444667806223 0.179113973336429 P
0.2177479016092697 0.8828156114942574 0.173139185831394 P
0.7403342422962937 0.3842465139765279 0.1821090683611034 P
0.718152910014413 0.8811199359254533 0.1726667556459822 P
0.0332275163875273 0.3666338191224094 0.6744148758136164 P
0.0142193511136171 0.865789451512102 0.6776987478897487 P
0.5338966169257449 0.373059183495358 0.6639711139181119 P
0.5158726074481582 0.8679766080838965 0.6796555815484071 P
0.2721719080784689 0.1239012516924725 0.8060336463806783 P
0.2717525502067448 0.6097001057632541 0.845651529600932 P
0.7750783311061109 0.1256095627982956 0.8068497146491469 P
0.7706407861989164 0.6095882236594061 0.8407421975475009 P
0.4699876059488293 0.1181767263104081 0.3136903182252008 P
0.4800635124091821 0.6368231889671916 0.3436811708363338 P
0.9714985745902689 0.1264530972301814 0.3065915969769467 P
0.9831187977225166 0.6391763894979277 0.3430084755898963 P
0.0956427941199123 0.2707755074186017 0.6037084872608616 O
0.0933617560224684 0.7675027466908456 0.6357325361405212 O
0.5973685690000566 0.2750782538321269 0.5957964274044297 O
0.5935925979124962 0.7688249711428176 0.63708813903336 O
0.1674854294038686 0.2837340785207867 0.1117900528374898 O
0.1432629882624519 0.7847009922849539 0.1195248617654254 O
0.6735408220431007 0.2873930811414742 0.1242167633258177 O
0.6427333483042699 0.7823224795603468 0.122222384771616 O
0.3449668529971618 0.2213167956419501 0.8519196948851846 O
0.3349245388207398 0.7106834562431669 0.9044985338773128 O
0.8494593522998128 0.2245362483172996 0.8644919995529735 O
0.8407067256008167 0.7067942404717279 0.901021213997462 O
0.3978431904656134 0.2178907351369717 0.3655508549798912 O
0.4001309924645324 0.7314722685821176 0.397341893527873 O
0.8997925137980485 0.224754426707353 0.3629781476893141 O
0.898041417885927 0.7313472914256607 0.3958566861824646 O
0.3436791724739028 0.0261251122981788 0.8648118851171258 O
0.3545742844022604 0.515998058323976 0.8985153274560234 O
0.8515178718503497 0.0300100471812528 0.8634959126182284 O
0.8492787661453062 0.5115407472399475 0.8925262218174285 O
0.3966092434799867 0.0239973564823207 0.3790267776702982 O
0.4115125732125987 0.5365676288915616 0.3986297453394169 O
0.892638489655486 0.0311086309493858 0.3613217170749869 O
0.9215423656880691 0.5371668048139413 0.4000095854482401 O
0.3863126123285949 0.3874695734679988 0.1273743521637374 O
0.3663193583454956 0.8756157310531644 0.1226137972943835 O
0.8891612113767646 0.3932549671701459 0.1247526463828909 O
0.866330107015918 0.8734909345455953 0.1229328523359367 O
0.2754398840360955 0.1163688591691725 0.6332535932334981 O
0.285398958242749 0.6145143629127782 0.678026503736554 O
0.7832818198012829 0.1232879553203126 0.6360406447259547 O
0.7856476858388797 0.613583199001157 0.6730609260030254 O
0.1237037590619584 0.1221463285626189 0.8642703066784669 O
0.1221541228424445 0.6000447732253629 0.8964633454213807 O
0.6297753870496734 0.1254945415955531 0.8637183498918046 O
0.622270568662345 0.603041904728734 0.8937074311526674 O
0.1177145587987849 0.1241196491083349 0.3637783846134562 O
0.1320415313722409 0.6474190059508809 0.3943893579803546 O
0.6180147091811957 0.1216042270449555 0.369050857159983 O
0.629530007867699 0.6430091000131163 0.3952923227014541 O
0.0484010817624397 0.3599456196719 0.8427897729056916 O
0.0231844100726073 0.8725716751208202 0.8474453033546444 O
0.565626272948596 0.3690966842420073 0.8268887983184844 O
0.5232568848821835 0.874597088891746 0.8493979914852785 O
0.2251766461074721 0.3711617372983666 0.3484772468021927 O
0.2014392484558286 0.8874330155278272 0.3402521130700545 O
0.7334561871531358 0.3822558249458087 0.354047441163883 O
0.7020841001884839 0.8864689389677854 0.3406915511414693 O
0.1591198370915412 0.4787865018284593 0.137963472160395 O
0.1494410281367648 0.9784232860714706 0.1060451920591198 O
0.6610982626700763 0.4823842546585526 0.1375884354649854 O
0.6509185342555667 0.9758320825835378 0.1032142730437704 O
0.4612421077101618 0.1162770471170276 0.1456621472192507 O
0.4659276865506738 0.6333602349844845 0.1752490146722254 O
0.9661615933227413 0.1308895672573654 0.1354464757780429 O
0.9686339647528994 0.6354409921287227 0.1746413361268609 O
0.3833209818052349 0.3786122563116615 0.6223541906375699 O
0.3667854012027733 0.8605392304885593 0.6252881642365766 O
0.8813682392281631 0.3770950691583647 0.6360443788919274 O
0.8649860273091259 0.8586963092768435 0.6249517842062503 O
0.1086897763667811 0.4641771542812309 0.6223882973205024 O
0.0831649924734063 0.9617426894855963 0.611657513029334 O
0.6059648111994516 0.4697213078700197 0.6028966328564479 O
0.5889279021529711 0.9629912931574793 0.6148945649918143 O
