System                                  
   1.0000000000000000     
     5.6148126488524390    0.0707283138288691    9.5098121945698324
     2.6501392326537938    4.9507372359104700    9.5097787513424450
     0.1171322137454285    0.0713689117299501   11.0533379475243922
  Na              Co              O             
     6     8    16
Direct
     0.2498436185663896    0.7501296246869864    0.2508792984893459
     0.2496649325999695    0.7505106077195813    0.7487932755633220
     0.7501139215724700    0.2498463274164741    0.2509007285392567
     0.7504992961029726    0.2496653201777004    0.7488132330523747
     0.7500077992556489    0.7500237734316082    0.2498648081137818
     0.7505526290200694    0.7505619006591200    0.7494362100998629
     0.0013700954150713    0.0013602532040611    0.0000776852834627
     0.0011106826556205    0.0011045701704931    0.4997266481359415
     0.0009596427734020    0.4983920956873660   -0.0000822704335302
     0.0011261089867843    0.4992343915965704    0.5001101625674255
     0.4983945807047943    0.0009565437633076   -0.0000813170672051
     0.4992254117115004    0.0011348778365030    0.5001120958591060
     0.4989814651585692    0.4989696830381287    0.0002388012227904
     0.4982611316403133    0.4982565425106899    0.5003092192330003
     0.1352434844687786    0.1352515855567577    0.1365975926441827
     0.1335549218068287    0.1334651582267586    0.6414381562562890
     0.1341135611680445    0.6407150685029956    0.1333180398072180
     0.1354842845226946    0.6344802635365878    0.6368765104546129
     0.6406345835159994    0.1340343054510121    0.1334520015654733
     0.6344946143700821    0.1354756859065213    0.6368680571574441
     0.6350208704328383    0.6350118885838067    0.1327443501724681
     0.6345666428866665    0.6346523078383265    0.6354048940972542
     0.3667828483602353    0.3667034855120962    0.3589848615592434
     0.3655738539217411    0.3655749304464196    0.8615888249760583
     0.3703399512475984    0.8579334853414847    0.3637662144441890
     0.3664260387111193    0.8597958107831714    0.8666660040842583
     0.8579372532780026    0.3703384338890294    0.3637601929531458
     0.8597212926149836    0.3663397638339387    0.8667975003940864
     0.8656290447318520    0.8657229685093757    0.3648822179233736
     0.8635813051847883    0.8635679231239682    0.8679624401642123

  0.00000000E+00  0.00000000E+00  0.00000000E+00
  0.00000000E+00  0.00000000E+00  0.00000000E+00
  0.00000000E+00  0.00000000E+00  0.00000000E+00
  0.00000000E+00  0.00000000E+00  0.00000000E+00
  0.00000000E+00  0.00000000E+00  0.00000000E+00
  0.00000000E+00  0.00000000E+00  0.00000000E+00
  0.00000000E+00  0.00000000E+00  0.00000000E+00
  0.00000000E+00  0.00000000E+00  0.00000000E+00
  0.00000000E+00  0.00000000E+00  0.00000000E+00
  0.00000000E+00  0.00000000E+00  0.00000000E+00
  0.00000000E+00  0.00000000E+00  0.00000000E+00
  0.00000000E+00  0.00000000E+00  0.00000000E+00
  0.00000000E+00  0.00000000E+00  0.00000000E+00
  0.00000000E+00  0.00000000E+00  0.00000000E+00
  0.00000000E+00  0.00000000E+00  0.00000000E+00
  0.00000000E+00  0.00000000E+00  0.00000000E+00
  0.00000000E+00  0.00000000E+00  0.00000000E+00
  0.00000000E+00  0.00000000E+00  0.00000000E+00
  0.00000000E+00  0.00000000E+00  0.00000000E+00
  0.00000000E+00  0.00000000E+00  0.00000000E+00
  0.00000000E+00  0.00000000E+00  0.00000000E+00
  0.00000000E+00  0.00000000E+00  0.00000000E+00
  0.00000000E+00  0.00000000E+00  0.00000000E+00
  0.00000000E+00  0.00000000E+00  0.00000000E+00
  0.00000000E+00  0.00000000E+00  0.00000000E+00
  0.00000000E+00  0.00000000E+00  0.00000000E+00
  0.00000000E+00  0.00000000E+00  0.00000000E+00
  0.00000000E+00  0.00000000E+00  0.00000000E+00
  0.00000000E+00  0.00000000E+00  0.00000000E+00
  0.00000000E+00  0.00000000E+00  0.00000000E+00
