System
1.0
5.622592698508003 0.0497414017822937 9.421409576462192
2.635302759447944 4.967121804043229 9.4213606202562
0.081678043872011 0.0496959864486667 10.971434417326073
Na Co O 
6 8 16 
direct
0.2507983727369787 0.7497634406581343 0.2507953295887239 Na
0.2504306348899605 0.7489982698619523 0.7490164257158288 Na
0.7497622954333002 0.2508012031332942 0.2507952528654883 Na
0.7490027799460506 0.2504317393471072 0.7490130923194873 Na
0.7490099508240959 0.7490023666406567 0.2504249662685231 Na
0.7502265076974642 0.7502224125774536 0.7502302860722018 Na
0.0004932759193742 0.000494641056346 1.000493036917181 Co
0.0006099543486792 0.0006042483952607 0.4990404685520556 Co
0.0006134562495007 0.4990434429472249 1.000602740989937 Co
0.000511087027492 0.4997409918941734 0.4997385087377819 Co
0.4990423744497597 0.0006120797318716 1.0006055038279904 Co
0.4997386585681761 0.0005130729848444 0.4997393451322069 Co
0.499738161751745 0.4997412177572845 1.0005111448735011 Co
0.4992093540288531 0.4992038979865168 0.4992061543516582 Co
0.134388851239969 0.1343536789530117 0.1343445209690469 O
0.1331959503903886 0.1331683194303455 0.6420108632051956 O
0.133197844184076 0.6419874128308384 0.1331874367697649 O
0.1319485927924545 0.6351700013197082 0.6352079297115116 O
0.6420226988178241 0.1331664903004208 0.1331846335331817 O
0.6351974010225372 0.1319134507015077 0.6352159736823435 O
0.6352111850756716 0.6351925766777219 0.1319259442197999 O
0.6350725203590719 0.6350450688745265 0.6350598376011366 O
0.3655348928426796 0.3655672078694361 0.3655468585826993 O
0.3649702178545962 0.364986010194348 0.8622687163018135 O
0.3649873908854226 0.8622832580482105 0.3649560124765907 O
0.3648650482867521 0.8661024879328681 0.8660807980506243 O
0.8622457001418653 0.3650162630219584 0.3649666620504589 O
0.8660705770787677 0.3648987726264672 0.8660785436955027 O
0.8660704228931804 0.8661004294674756 0.3648753863725876 O
0.8650497096491342 0.8650851237198717 0.8650840638776272 O
