System
1.0
9.96074 0.00011 -6e-05
4e-05 12.94709 0.00158
4e-05 -0.00102 9.42854
Li Mn P O 
14 16 16 64 
direct
0.5259826971336716 0.12464562849740557 0.6701816779939368 a
0.510785172865596 0.625062410799658 0.6710329784833784 a
0.2342976734846982 0.1252885757571768 0.16378915638825217 a
0.23808526272556557 0.624913417419956 0.16937082119586808 a
0.7387140217393905 0.12518223822419428 0.17055524731587585 a
0.7376538217390036 0.6250912082352054 0.17065131247505858 a
0.4876048569447818 0.37411607922487305 0.3330379386609427 a
0.48743644988190876 0.8759053967764822 0.33312385339596395 a
0.9879532407923146 0.37164012896276866 0.32985846489693127 a
0.98778390707371 0.8779355075702053 0.3295276036636359 a
0.2620480172125215 0.3737973183418005 0.8285740036178715 a
0.26186505954893796 0.8767798287207177 0.8278520043949867 a
0.7634462475707015 0.3745028635055345 0.8286684508410761 a
0.7632998621962513 0.8756709062983369 0.8287875308502649 a
0.5004348676500106 0.2500728124976672 0.9993620513501082 a
0.5006542543182463 0.7506065925807053 0.0010205286984970997 a
0.0025213403104549993 0.24827675155530818 0.9920957632007198 a
0.00065041939446 0.7508276943769555 0.0005862917584002999 a
0.24823139197558927 0.24763238902194498 0.499959299810217 a
0.24771405627132403 0.7493076303446042 0.5019003247096454 a
0.7554204016203391 0.24995390655033334 0.5045396199010937 a
0.7502523890460169 0.749237154979253 0.4999661855415735 a
0.002144998437126 0.0016179077880326999 0.9923710998396823 a
0.0003791069653125999 0.49875900101908033 0.0011001196222476999 a
0.4997723220073518 0.9998547698155295 0.9997449883645312 a
0.5005816643217811 0.49927234527141934 0.0012134704987335995 a
0.2474966445668633 0.5011762290824686 0.5014848946348088 a
0.24674161372082795 0.0030199551276677995 0.49867325894669395 a
0.7502334386213446 0.5009320489628036 0.49978305480525587 a
0.755402019701672 5.1022869846699986e-05 0.5044663158610008 a
0.24003132102359695 0.37515155979643305 0.18006259407044428 a
0.23972483476493328 0.8747717980985611 0.17960805594656526 a
0.7398045617348404 0.3749223305986286 0.18030261615314136 a
0.739634158137138 0.8751113165187544 0.18016478795794477 a
0.012916797585362001 0.3818636384390152 0.6765211936374544 a
0.012600478553608399 0.8679003828445871 0.6769685104449842 a
0.5107431112662162 0.37739018873004954 0.6790647158181501 a
0.5107128011325732 0.8725671702046134 0.6792638977999435 a
0.25998830699244474 0.12540800475398878 0.8201489455952713 a
0.2614704854106734 0.6249837706197824 0.8227002599515223 a
0.7581810694194224 0.12504746667084618 0.8208572865979897 a
0.759850033913688 0.6248541554573175 0.8217272218383589 a
0.48717072184422683 0.12471927836115908 0.3212871752951204 a
0.4880061239981406 0.625043177810876 0.32149268364558853 a
0.9895880634122742 0.12492309701862919 0.31928475014992136 a
0.9892601772722779 0.6251608859833606 0.31937223248416097 a
0.08385261296056838 0.29017610618466566 0.6085431161105912 a
0.07121274432353468 0.7642210543138008 0.6239898027750486 a
0.5758450345599087 0.27928422780661843 0.6177413191076566 a
0.5759233434334746 0.7729551925784381 0.6214536515148468 a
0.17360741615102726 0.27721843853466593 0.11895738100254828 a
0.17504714447829053 0.774958375590156 0.12220153650198907 a
0.6732979343605653 0.2762698907798205 0.12085054351808268 a
0.6745831683755759 0.7754005456602235 0.12230105238618509 a
0.32817054565652204 0.22486561483896317 0.876617720288099 a
0.32609723374927646 0.7244520931841215 0.8817100861050359 a
0.8249011693521578 0.22444110211091048 0.8767690658982088 a
0.8254634140453317 0.7239560626797825 0.8807062341437771 a
0.4211633518144962 0.22363295906290978 0.3816769953058613 a
0.4227631094239396 0.724212698247675 0.3807092806911521 a
0.9243570685030533 0.22409981652511196 0.37784334024457805 a
0.9235859473606859 0.7244775629271546 0.37733955198438335 a
0.3289550057540049 0.0258212887582471 0.875531777262734 a
0.3262260132882924 0.525534447468027 0.8816192932646661 a
0.8249551154408739 0.025637753445603692 0.8765716716015158 a
0.825398747392243 0.525584445051763 0.8801694250630748 a
0.4219533876604235 0.0257789383737753 0.3818924288426425 a
0.42284350196416437 0.525831890808042 0.3807357106210641 a
0.9248126298626315 0.0256608209736609 0.37813549578057254 a
0.9236516377506921 0.52580531186743 0.37737790972993546 a
0.3935786406487988 0.37432939669565446 0.14314437451929296 a
0.3933461897785413 0.8754087086152654 0.14281254542397556 a
0.8927456750692584 0.3744121607752168 0.14123361699617676 a
0.8925624133474697 0.875665239156927 0.14111332641293597 a
0.2838590108520815 0.12561462585348518 0.6539823368265458 a
0.2905642423898764 0.6250083507292676 0.657269117531278 a
0.76166740641533 0.1250502754714588 0.6548749051731614 a
0.7865393148244229 0.6250236011976028 0.6561406742070579 a
0.1114878285583542 0.1250171993518302 0.8709902428111006 a
0.10858314445659069 0.624919205299875 0.8622723104843506 a
0.6060247856844047 0.1250181415125726 0.8694510084023164 a
0.6067398461554699 0.6249473223330848 0.8601759436341515 a
0.14365866176476128 0.1250520101896122 0.35430334178306744 a
0.14254415649238816 0.6251395251810191 0.3572088462157872 a
0.6401875490709873 0.12507731112527687 0.35671785443927195 a
0.6415779326077338 0.6250372172441556 0.35858822624439946 a
0.039430636317038796 0.37654816885118375 0.8423389544358311 a
0.03849467787443269 0.8727633898915023 0.8430515637748939 a
0.5384895816518342 0.37590613636394044 0.8446946529623532 a
0.5383563493220558 0.8741531470208997 0.8449935630531108 a
0.2136604524829678 0.37428503004244057 0.34613050366580816 a
0.21306462855758573 0.8755490977181952 0.34546698241190327 a
0.713958628823831 0.37444111233156246 0.34622757706222346 a
0.7137017153482996 0.8757276864874991 0.34604915689710203 a
0.17566484759736106 0.47503622867376744 0.12263113915260677 a
0.17392637469290206 0.9728493909408894 0.11811761069279297 a
0.6747213050416935 0.47456557268253496 0.12226654380894048 a
0.6731185178224102 0.9736941489856883 0.12031911060940009 a
0.45808146007132305 0.12483740301914399 0.15591993255558478 a
0.46163307983715407 0.6250097309034386 0.15585795252063298 a
0.9626366468156274 0.12492398765842347 0.15327593323692226 a
0.9631648699583071 0.625164588091573 0.15347500080870569 a
0.35738268517253313 0.3776992355161964 0.6418175927556793 a
0.35748325285586685 0.8721979965200136 0.6418659640274553 a
0.858937890491924 0.3776625681929563 0.6403119893270701 a
0.8586992290309018 0.8721615950149333 0.6403915619741374 a
0.07144401181380199 0.4856278323676888 0.6238632316255474 a
0.08429291536020178 0.959740668852892 0.6107663598732944 a
0.5758797461259029 0.47699637480704554 0.6211762336117734 a
0.5761214557541843 0.9706497518930798 0.6182060538217099 a
