System                                  
   1.0000000000000000     
    11.3414376695480694   -0.0647836135991604   -0.2488026780888000
    -5.6337010728795018    9.9288513910399363    0.0710431474792025
     0.0222419509143507    0.0786910209071783    9.2036924770866690
  Li              Mn              Co              Ni              O             
     7    12     8    12    64
Direct
     0.1736703896628239    0.3391094013716261    0.8988459610709697
     0.1714812516197141    0.8355914643129098    0.9008384736000800
     0.6746881865920658    0.8405923452479909    0.8976752318548051
     0.3337150957763854    0.1629564553147043    0.4024596250865330
     0.3345022687739790    0.6646886175874959    0.4017967293312020
     0.8336502358273535    0.1632631616319095    0.4023371462438598
     0.8334331503100385    0.6629452444356257    0.4008277755502857
     0.0840584090615400    0.4181259121948572    0.2113866843977741
     0.0827506397255258    0.9173876627976686    0.2128837423661319
     0.5837783705957147    0.4157163018321380    0.2050701087107435
     0.5842208979537027    0.9174620519643962    0.2101045720267601
     0.0834279809069247    0.1675547000912304    0.2118586293987399
     0.0852118326805909    0.6679861299572400    0.2127479907529289
     0.5836869181628610    0.1676485802254825    0.2084728202393822
     0.5848053729133574    0.6670162591515332    0.2098788460523972
     0.1617284923672815    0.0801452369520645    0.7136935155507551
     0.1680329405427280    0.5824000889659549    0.7098508563399670
     0.6652496191664105    0.0843997505064457    0.7133657761050994
     0.6678313615007790    0.5781853523963850    0.7076023855850371
     0.1673776439631655    0.3295417401876062    0.4848782275875042
     0.1650912781319357    0.8304775192121683    0.4888192839238394
     0.6705671012321760    0.3315719594382034    0.4842624333549286
     0.6679173566589989    0.8272116343451641    0.4853229772297175
     0.3369810777250754    0.1667368747022528    0.9822829273223971
     0.3429384030491019    0.6739953211660503    0.9836360345083817
     0.8398992533273526    0.1743564050585450    0.9835765998944451
     0.8400925400708698    0.6710911324593820    0.9822053708307409
     0.4143088376194099    0.0838590174916399    0.7139565770891448
     0.4208416333045935    0.5876518685068491    0.7097911847236178
     0.9165529943217208    0.0856596944243608    0.7126992690188364
     0.9196999827390122    0.5861555640423506    0.7107669277569276
     0.3328788949529346    0.4150328740891024    0.2083746975966330
     0.3329514117456508    0.9165710600631368    0.2111239696313390
     0.8319430135910281    0.4151676097747888    0.2082154381622375
     0.8325381964015460    0.9160545681238892    0.2092154088569738
     0.4127828562885162    0.3295890626063831    0.7062038302509652
     0.4169564588084162    0.8345315350992771    0.7144948650190168
     0.9149928852563183    0.3322200538652631    0.7129122792375251
     0.9136249192136974    0.8298358359067353    0.7112862485206799
     0.1700084569148078    0.0851100388026451    0.1085215335517879
     0.1722139912134459    0.5879201154805491    0.1071634198962508
     0.6703486966125816    0.0864029534938835    0.1046613474290320
     0.6710156552121975    0.5865234121969396    0.1029001550826292
     0.4200747505055167    0.3353165824078819    0.0900054775817898
     0.4203814188709762    0.8350254450677596    0.0942562791766154
     0.9206315075323229    0.3391786135960837    0.0939032454227579
     0.9192588440674390    0.8349010427466704    0.0960045532441788
     0.3301956016294134    0.1637241484548562    0.6101600611318312
     0.3377170729143720    0.6732435796507640    0.6099592377730252
     0.8334817844798660    0.1700192899429877    0.6108936237709572
     0.8369954083811669    0.6690440376570619    0.6084301153402036
     0.2624035342152015    0.0191514525239196    0.8404817293251715
     0.2658012315871854    0.5256687015539648    0.8408988991666390
     0.7632139400629556    0.0263824895460763    0.8440859745520098
     0.7654616668075495    0.5248936026518134    0.8418467724765487
     0.2499566399854144    0.2285000457701299    0.8476105008294400
     0.2630123287939020    0.7418702837637076    0.8384195927263213
     0.7629743705627757    0.2430751285567801    0.8386753534718900
     0.7600092424569250    0.7384317203990671    0.8356602268934910
     0.3184639278578489    0.4058249245188950    0.5954079147121988
     0.3355850558564161    0.9181587400135428    0.5970538140030797
     0.8262975543808447    0.4080621811217727    0.5939255248971265
     0.8205822471405072    0.9043248868180830    0.5980680489214174
     0.2320615298595106    0.2503996486785213    0.3487245378707137
     0.2349520304427632    0.7549791876222934    0.3495740641037806
     0.7343804632394062    0.2527957539249543    0.3458854404388484
     0.7328482479765399    0.7501869026992182    0.3476329616685393
     0.0188462738260459    0.2597935320656235    0.3383840306349303
     0.0191886426038187    0.7587088597491798    0.3410295730363501
     0.5202579814468404    0.2605811631747241    0.3370329724529420
     0.5200974779141592    0.7591522939229153    0.3378170510855080
     0.0799698353992577    0.1618029128211967    0.5994642419588019
     0.0874157928181885    0.6711438021785756    0.6007261443777351
     0.5781363562920785    0.1621180501774623    0.5983971878866623
     0.5823330770551330    0.6604649844644780    0.5941478971119134
     0.9934548090647550    0.9933033635285263    0.8114269844848887
     1.0000207994551096    0.4981725369254059    0.8097202857681749
     0.4966747889010091    0.9993383686219666    0.8140861311158307
     0.4990630964360860    0.4952528025766072    0.8046264032829744
     0.9964345957853077    0.9983186559880246    0.3119034394597472
     0.9979878158171583    0.4988221036708604    0.3113197580468389
     0.4986401108126463    0.9983038600104892    0.3107190786556703
     0.4985157729290633    0.4974114831204141    0.3084208378892659
     0.1675994659658773    0.3346203746382873    0.1070106894129709
     0.1681472073925658    0.8353855069232573    0.1086610641395221
     0.6681787643404351    0.3335608951842507    0.1046095671726295
     0.6686305557614641    0.8346527497304848    0.1057803707204405
     0.4780541931020007    0.2355252591671552    0.8414750842106044
     0.4855747605757273    0.7535166734624886    0.8459541572563594
     0.9834291312847352    0.2534479998528353    0.8467782293628229
     0.9837116926412625    0.7521113518873921    0.8457412976332553
     0.0815096774165765    0.4174107336665104    0.6010232595957949
     0.0788745961647510    0.9141077057612430    0.6021466136353084
     0.5950083970836821    0.4158500791597965    0.5951781845002303
     0.5821232049588047    0.9165696672803031    0.6064710232610896
     0.2372355946825183    0.4764613561057447    0.3459211119872618
     0.2333853588164884    0.9754846308123577    0.3505820222965798
     0.7397242889791842    0.4768723901177814    0.3409448670018271
     0.7367434257474448    0.9757459694607521    0.3465954895607527
     0.4175493664935912    0.0919386289922003    0.0982087173810136
     0.4201970146929760    0.5949229427115805    0.0946144226930577
     0.9188984282257647    0.0960679232618841    0.0962275719988957
     0.9199493485703603    0.5941958179864225    0.0962865217503588

  0.00000000E+00  0.00000000E+00  0.00000000E+00
  0.00000000E+00  0.00000000E+00  0.00000000E+00
  0.00000000E+00  0.00000000E+00  0.00000000E+00
  0.00000000E+00  0.00000000E+00  0.00000000E+00
  0.00000000E+00  0.00000000E+00  0.00000000E+00
  0.00000000E+00  0.00000000E+00  0.00000000E+00
  0.00000000E+00  0.00000000E+00  0.00000000E+00
  0.00000000E+00  0.00000000E+00  0.00000000E+00
  0.00000000E+00  0.00000000E+00  0.00000000E+00
  0.00000000E+00  0.00000000E+00  0.00000000E+00
  0.00000000E+00  0.00000000E+00  0.00000000E+00
  0.00000000E+00  0.00000000E+00  0.00000000E+00
  0.00000000E+00  0.00000000E+00  0.00000000E+00
  0.00000000E+00  0.00000000E+00  0.00000000E+00
  0.00000000E+00  0.00000000E+00  0.00000000E+00
  0.00000000E+00  0.00000000E+00  0.00000000E+00
  0.00000000E+00  0.00000000E+00  0.00000000E+00
  0.00000000E+00  0.00000000E+00  0.00000000E+00
  0.00000000E+00  0.00000000E+00  0.00000000E+00
  0.00000000E+00  0.00000000E+00  0.00000000E+00
  0.00000000E+00  0.00000000E+00  0.00000000E+00
  0.00000000E+00  0.00000000E+00  0.00000000E+00
  0.00000000E+00  0.00000000E+00  0.00000000E+00
  0.00000000E+00  0.00000000E+00  0.00000000E+00
  0.00000000E+00  0.00000000E+00  0.00000000E+00
  0.00000000E+00  0.00000000E+00  0.00000000E+00
  0.00000000E+00  0.00000000E+00  0.00000000E+00
  0.00000000E+00  0.00000000E+00  0.00000000E+00
  0.00000000E+00  0.00000000E+00  0.00000000E+00
  0.00000000E+00  0.00000000E+00  0.00000000E+00
  0.00000000E+00  0.00000000E+00  0.00000000E+00
  0.00000000E+00  0.00000000E+00  0.00000000E+00
  0.00000000E+00  0.00000000E+00  0.00000000E+00
  0.00000000E+00  0.00000000E+00  0.00000000E+00
  0.00000000E+00  0.00000000E+00  0.00000000E+00
  0.00000000E+00  0.00000000E+00  0.00000000E+00
  0.00000000E+00  0.00000000E+00  0.00000000E+00
  0.00000000E+00  0.00000000E+00  0.00000000E+00
  0.00000000E+00  0.00000000E+00  0.00000000E+00
  0.00000000E+00  0.00000000E+00  0.00000000E+00
  0.00000000E+00  0.00000000E+00  0.00000000E+00
  0.00000000E+00  0.00000000E+00  0.00000000E+00
  0.00000000E+00  0.00000000E+00  0.00000000E+00
  0.00000000E+00  0.00000000E+00  0.00000000E+00
  0.00000000E+00  0.00000000E+00  0.00000000E+00
  0.00000000E+00  0.00000000E+00  0.00000000E+00
  0.00000000E+00  0.00000000E+00  0.00000000E+00
  0.00000000E+00  0.00000000E+00  0.00000000E+00
  0.00000000E+00  0.00000000E+00  0.00000000E+00
  0.00000000E+00  0.00000000E+00  0.00000000E+00
  0.00000000E+00  0.00000000E+00  0.00000000E+00
  0.00000000E+00  0.00000000E+00  0.00000000E+00
  0.00000000E+00  0.00000000E+00  0.00000000E+00
  0.00000000E+00  0.00000000E+00  0.00000000E+00
  0.00000000E+00  0.00000000E+00  0.00000000E+00
  0.00000000E+00  0.00000000E+00  0.00000000E+00
  0.00000000E+00  0.00000000E+00  0.00000000E+00
  0.00000000E+00  0.00000000E+00  0.00000000E+00
  0.00000000E+00  0.00000000E+00  0.00000000E+00
  0.00000000E+00  0.00000000E+00  0.00000000E+00
  0.00000000E+00  0.00000000E+00  0.00000000E+00
  0.00000000E+00  0.00000000E+00  0.00000000E+00
  0.00000000E+00  0.00000000E+00  0.00000000E+00
  0.00000000E+00  0.00000000E+00  0.00000000E+00
  0.00000000E+00  0.00000000E+00  0.00000000E+00
  0.00000000E+00  0.00000000E+00  0.00000000E+00
  0.00000000E+00  0.00000000E+00  0.00000000E+00
  0.00000000E+00  0.00000000E+00  0.00000000E+00
  0.00000000E+00  0.00000000E+00  0.00000000E+00
  0.00000000E+00  0.00000000E+00  0.00000000E+00
  0.00000000E+00  0.00000000E+00  0.00000000E+00
  0.00000000E+00  0.00000000E+00  0.00000000E+00
  0.00000000E+00  0.00000000E+00  0.00000000E+00
  0.00000000E+00  0.00000000E+00  0.00000000E+00
  0.00000000E+00  0.00000000E+00  0.00000000E+00
  0.00000000E+00  0.00000000E+00  0.00000000E+00
  0.00000000E+00  0.00000000E+00  0.00000000E+00
  0.00000000E+00  0.00000000E+00  0.00000000E+00
  0.00000000E+00  0.00000000E+00  0.00000000E+00
  0.00000000E+00  0.00000000E+00  0.00000000E+00
  0.00000000E+00  0.00000000E+00  0.00000000E+00
  0.00000000E+00  0.00000000E+00  0.00000000E+00
  0.00000000E+00  0.00000000E+00  0.00000000E+00
  0.00000000E+00  0.00000000E+00  0.00000000E+00
  0.00000000E+00  0.00000000E+00  0.00000000E+00
  0.00000000E+00  0.00000000E+00  0.00000000E+00
  0.00000000E+00  0.00000000E+00  0.00000000E+00
  0.00000000E+00  0.00000000E+00  0.00000000E+00
  0.00000000E+00  0.00000000E+00  0.00000000E+00
  0.00000000E+00  0.00000000E+00  0.00000000E+00
  0.00000000E+00  0.00000000E+00  0.00000000E+00
  0.00000000E+00  0.00000000E+00  0.00000000E+00
  0.00000000E+00  0.00000000E+00  0.00000000E+00
  0.00000000E+00  0.00000000E+00  0.00000000E+00
  0.00000000E+00  0.00000000E+00  0.00000000E+00
  0.00000000E+00  0.00000000E+00  0.00000000E+00
  0.00000000E+00  0.00000000E+00  0.00000000E+00
  0.00000000E+00  0.00000000E+00  0.00000000E+00
  0.00000000E+00  0.00000000E+00  0.00000000E+00
  0.00000000E+00  0.00000000E+00  0.00000000E+00
  0.00000000E+00  0.00000000E+00  0.00000000E+00
  0.00000000E+00  0.00000000E+00  0.00000000E+00
  0.00000000E+00  0.00000000E+00  0.00000000E+00
