System
1.0
11.34143766954807 -0.0647836135991604 -0.2488026780888
-5.633701072879502 9.928851391039936 0.0710431474792025
0.0222419509143507 0.0786910209071783 9.203692477086669
Li Mn Co Ni O 
7 12 8 12 64 
direct
0.172715512136851 0.3398103395528659 0.9001398455023385 Li
0.1724103072107528 0.8379762777802903 0.8993894666213824 Li
0.6742287028719182 0.8403719651861133 0.8964317286248524 Li
0.3332221265025401 0.1624509105325732 0.4048353049300843 Li
0.3343008056723994 0.6633526020339446 0.4005011906025927 Li
0.833564981733032 0.1628358657932352 0.4023433128641575 Li
0.8347018100037257 0.6637617959826448 0.4003643646065584 Li
0.0843001076626657 0.4178072923417432 0.2108214711765467 Mn
0.0835834332999104 0.9171268665763803 0.2125556903572638 Mn
0.5841606932599168 0.4175663980570717 0.2099749937898565 Mn
0.5841190321684588 0.9176858030777961 0.2096356600369814 Mn
0.0835705388599874 0.1671551108424187 0.212721438236854 Mn
0.0849261822670022 0.6676764144104896 0.2110184757277275 Mn
0.5833098465246145 0.1671456390074146 0.2115398974053884 Mn
0.5846118243292746 0.6676102447564851 0.2094634846447649 Mn
0.1631554212703369 0.0802932241506175 0.7163158475411888 Mn
0.1665558685596 0.5810773845840039 0.7096697569827032 Mn
0.6651151644580375 0.0821619618786212 0.7098124678505812 Mn
0.6679931454717449 0.5804965285198186 0.7055163570639587 Mn
0.1661658664134644 0.3278455293604757 0.4862370323651743 Co
0.1676869482948425 0.828322015247189 0.4866825727842494 Co
0.6723824008882486 0.3315809165010186 0.4849350167100226 Co
0.6687368127642157 0.8277626432382204 0.4840567283450806 Co
0.3369459920333146 0.1698749618854674 0.9838620463946774 Co
0.3427972519456456 0.6738825462171093 0.982378951807529 Co
0.8403567055794773 0.1735469219573446 0.9838010273641962 Co
0.8410747044990339 0.6728714323393208 0.9824224818593179 Co
0.4165924367761828 0.0854154314834436 0.7125850490729455 Ni
0.4200349268897569 0.5872590527500663 0.7088086874566275 Ni
0.9172949152788046 0.0856098415210148 0.7124338561934335 Ni
0.920219638545736 0.5862403260601066 0.7102080937617965 Ni
0.3326446243344676 0.4148916711032368 0.2109597296539987 Ni
0.3329278365370967 0.9161410860959952 0.2098284584114877 Ni
0.8328950683043301 0.4150057487259071 0.2090987946709713 Ni
0.8324885585404135 0.9157151438102618 0.2082063935673401 Ni
0.4125948109906083 0.3314540789483464 0.7093129366010275 Ni
0.4151797610270871 0.8320491363664009 0.7112737196433008 Ni
0.9152456752580207 0.3316143224651836 0.7125538095558513 Ni
0.9146579386362899 0.830557968409833 0.7111209542478033 Ni
0.1700241709046919 0.0855285529537221 0.1094027385139929 O
0.1716754636626991 0.5871764469244666 0.1053919369445379 O
0.6701985962161552 0.0870222075671309 0.1047990349359161 O
0.6709478668403349 0.5866939432582249 0.1038133143668943 O
0.4194472228486472 0.3369547460933049 0.0960520990827927 O
0.4206914395261259 0.8363338716073045 0.0932420402413673 O
0.920414847195638 0.338600037083676 0.0933385224623343 O
0.9198364628406314 0.8355394189320083 0.0944159150352243 O
0.3310109951264494 0.166027326102605 0.6122209346319116 O
0.3356430029889052 0.6703863367919308 0.6083674727279776 O
0.8348995460567232 0.1699398746639557 0.6100179697393974 O
0.8380105198669633 0.6699116070996941 0.6074498313096257 O
0.2613443476865401 0.0222030520869821 0.8462105668246084 O
0.2656283254465334 0.5256453086026146 0.8414958306554462 O
0.7633800891041377 0.0259106296896102 0.8430007096869429 O
0.7648656418063076 0.5249015749326376 0.8410157855602982 O
0.2489813123313835 0.2301456561928543 0.8498487622393268 O
0.2622478055050654 0.7411596003159474 0.8366631916528411 O
0.7617666329032031 0.2423503868299397 0.8372303473807513 O
0.7605635219607176 0.7393856835694931 0.8350005645401813 O
0.3183355431857905 0.4053096895659584 0.596116701672749 O
0.3226540727204429 0.9070297151043787 0.5983338859858768 O
0.8284798820266936 0.4082525074913483 0.5950916854877217 O
0.8211700970271544 0.9046800015312707 0.5974770261281859 O
0.2307034272480072 0.2486279879036843 0.3503317829784563 O
0.2335963911136192 0.7514196232116195 0.3478583436951292 O
0.7337115277293563 0.2507567238393856 0.3473693736221328 O
0.7331911795114379 0.7503831319514459 0.3465838499212705 O
0.0184670692213882 0.259431404568697 0.3382561367779104 O
0.0198102744117385 0.758777974455317 0.3390020449588006 O
0.5206489049393138 0.2610652712866456 0.3391955815156306 O
0.5201560963853427 0.7595766671638422 0.3370648509961803 O
0.080167711655564 0.1614226690046014 0.5992307572752577 O
0.0830805419757419 0.6626021815849994 0.5962156598923539 O
0.5828822867839305 0.1649849381619479 0.5973576706742815 O
0.5825429556497175 0.6610426301056508 0.5926072463913467 O
0.9933585399221688 0.9933509637235285 0.8119647021335741 O
0.998948720888118 0.4972137698890732 0.8103358543626753 O
0.4972181564388625 0.9971997235625492 0.8100131134456888 O
0.5004188996761755 0.4987184359047074 0.8053494260102335 O
0.9961056678688774 0.9973511578814832 0.311469426864641 O
0.9983012243350259 0.4986514131932966 0.3105586666138087 O
0.4979203549889506 0.9978569767241499 0.3112194469137953 O
0.4990704794086199 0.4990195131824625 0.3109994611568085 O
0.1680044649986135 0.3341938989925304 0.1078809963459983 O
0.1684639938355981 0.8351292931396126 0.1073521806418028 O
0.6679146154436454 0.3339831390505986 0.1063634989929284 O
0.6683816785090505 0.8348640693613141 0.1049273909273788 O
0.4800323734321559 0.247533022077585 0.8493658864241906 O
0.4851491075841712 0.7533464018688079 0.844012932120811 O
0.9832741560142254 0.2527502958935369 0.8467133244711853 O
0.9838263556658305 0.7520807029766744 0.8451587129119629 O
0.0801749072341218 0.4149376093354897 0.6025889390260488 O
0.0801923243335997 0.9144503014338071 0.6036148561745899 O
0.5962589675298354 0.4163328283425591 0.5980514507908503 O
0.5807972779888725 0.9158885258282261 0.6023893868590183 O
0.237466452290266 0.4755335623299877 0.3454206152463706 O
0.2357667178868453 0.9757114030099787 0.3480536062135993 O
0.7409659518923725 0.4773349596560341 0.342164798602889 O
0.737147963956871 0.9757810970454527 0.3454353327736109 O
0.4186608723899015 0.094732807224826 0.0984776733819304 O
0.4198740416637839 0.5960620777787278 0.0948201334378137 O
0.918654184182493 0.0960951619933323 0.095703480974269 O
0.9197564509921428 0.5954524971410933 0.0946715536998667 O
