System                                  
   1.0000000000000000     
     0.0082195678957559    4.6064566462717504    7.5299655406963577
     4.3802252832513817    0.0025731337317717    7.5331715214405639
     4.3778998603262220    4.6095065553818859    0.0029162524632908
  Sr              Li              Ge            
     4     2     6
Direct
     0.7594344924590336    0.2406538367257286    0.7592796295330044
     0.2405655536709330    0.7593461100313957    0.2407202302140471
     0.2503172176214302    0.2500625439939835    0.2498214201279652
     0.7496824466592352    0.7499377160780846    0.7501786943226972
     0.3335553012814931    0.3339234849700278    0.6663983789677481
     0.6664444325275506    0.6660766623335119    0.3336015809141585
     0.3347159024718486    0.8314593385828657    0.6646794677880496
     0.8313207196710544    0.3348647173885741    0.1691051981817123
     0.6652839066663984    0.1685409826736183    0.3353202861753980
     0.1686797352484649    0.6651348117786414    0.8308947396087734
     0.1667178600023046    0.1667108011521450    0.8331614951158833
     0.8332824317202536    0.8332889942914238    0.1668388790505638

  0.00000000E+00  0.00000000E+00  0.00000000E+00
  0.00000000E+00  0.00000000E+00  0.00000000E+00
  0.00000000E+00  0.00000000E+00  0.00000000E+00
  0.00000000E+00  0.00000000E+00  0.00000000E+00
  0.00000000E+00  0.00000000E+00  0.00000000E+00
  0.00000000E+00  0.00000000E+00  0.00000000E+00
  0.00000000E+00  0.00000000E+00  0.00000000E+00
  0.00000000E+00  0.00000000E+00  0.00000000E+00
  0.00000000E+00  0.00000000E+00  0.00000000E+00
  0.00000000E+00  0.00000000E+00  0.00000000E+00
  0.00000000E+00  0.00000000E+00  0.00000000E+00
  0.00000000E+00  0.00000000E+00  0.00000000E+00
