Mn12O24                                 
   1.00000000000000     
    11.4294996262000002    0.0000000000000000    0.0000000000000000
    -5.7149085917000004    9.8966311518999994    0.0000000000000000
     0.0030943225000000   -0.0162083707000000   15.2881275770999991
   Mn   O    Ni   Na
    36    96    12     1
Direct
  0.0855219745740046  0.1713060621888422  0.3248653180873666
  0.0854610119117773  0.6701107068218607  0.3244698822157088
  0.5849908716509640  0.1704625125800725  0.3270876558308173
  0.5848279347960605  0.6703717287135973  0.3276656284914318
  0.3353078469515382  0.1713095514701447  0.3247575446927541
  0.3351306590388225  0.6703627475456395  0.3276596105785346
  0.8350499119814381  0.1705009393118432  0.3272282125677054
  0.8342263087169114  0.6701683495902488  0.3244896381395156
  0.3352177702770380  0.4208350593466438  0.3277870580743717
  0.3352436727932170  0.9200567913673507  0.3245407583865682
  0.8350154802603091  0.4204336567715032  0.3271913050167953
  0.8343416814585360  0.9200941839016039  0.3246453295613739
  0.1653288761379055  0.0802859901039303  0.6814344031215080
  0.1646195939125576  0.5790935002736546  0.6727152275156451
  0.6648019355426074  0.0792024340422892  0.6713518435680395
  0.6647727570843396  0.5791000071750295  0.6727020568918005
  0.1646934256250523  0.3292682119445852  0.6732103401223681
  0.1651989845716982  0.8286664062640811  0.6805448152225402
  0.6647664333386951  0.3292418360425031  0.6711492317569066
  0.6648288128665262  0.8294335324908977  0.6728744928291314
  0.4149776394171832  0.3292818835164220  0.6731583993917261
  0.4149225218443188  0.8294208620681647  0.6728939399694358
  0.9148638874415950  0.3292120871743884  0.6711852554141087
  0.9138154338521000  0.8286429099524897  0.6805498157794466
  0.4999940814111364  0.4999532640246392 -0.0000562090645835
  0.5000449615858490 -0.0000021087192611 -0.0000633341818685
  0.0000127363644256  0.4999775588248189 -0.0000905914245844
 -0.0000162960154933 -0.0000166173849094  0.0001143655375362
  0.5000258613596849  0.2499997292022441 -0.0000686902406157
  0.5000373366281373  0.7500029835488679 -0.0000572564114127
  0.0000051665443561  0.2500090974565789 -0.0000694855945312
 -0.0000009062456406  0.7499596394917675  0.0000614646592577
  0.2499959489635196  0.4999528103926771 -0.0000649837218414
  0.2500280476142640 -0.0000263377851627  0.0001216589003912
  0.7499787053339729  0.4999690677956886 -0.0000934117919013
  0.7499991392264483  0.0000045223244492 -0.0000744299141711
 -0.0020695893005842  0.4972094744274501  0.6092881872708844
  0.0001581734475900  0.9941964156314371  0.6145660192823761
  0.4976548767348430  0.4959679583814797  0.6096362590468976
  0.4965043984842580  0.9960753816327995  0.6096245192834923
 -0.0018042661399216  0.2438757867238752  0.6097642086345331
  0.0001418809067940  0.7496539329797987  0.6137483144910154
  0.4962514339844254  0.2440019589446113  0.6096716820368498
  0.4978648571747597  0.7454068818378075  0.6095994638042727
  0.2487249870872695  0.4959538340297844  0.6096633762931520
  0.2444104670181653  0.9942095074744306  0.6145141603236980
  0.7496617550355726  0.4972358174208105  0.6092719699500824
  0.7499913870875842  0.9961231064615339  0.6096071559497409
  0.2460859516237949  0.2417805788671379  0.6121096455266907
  0.2463232554957522  0.7477672811477123  0.6114013959940154
  0.7480137342735458  0.2455863775655500  0.6076828285040369
  0.7518421877121023  0.7477886013731986  0.6113619667553775
  0.0039344343491105  0.0017117982545931  0.3869441961939772
  0.0026803693365286  0.5047469997883544  0.3895223515899509
  0.5007686404869829  0.0029478894265948  0.3893644091018430
  0.5023235536039281  0.5036881565433333  0.3904528709074711
  0.0026700487678690  0.2540237878662660  0.3896971454290585
  0.0038073007695043  0.7580312583047032  0.3867453120635667
  0.5008642203786637  0.2539643345828011  0.3895401101434388
  0.5021070477529004  0.7546209337327990  0.3903553164128943
  0.2473818285422070  0.0017359507952984  0.3868544985510537
  0.2509869016295274  0.5036661884802780  0.3904672819510587
  0.7516159941714794  0.0029449054572832  0.3894607665484672
  0.7516514673077592  0.5047808105432012  0.3894298724507788
  0.2510418972230561  0.2525268287633594  0.3896818962491064
  0.2507467966794799  0.7547640532570729  0.3895198095479402
  0.7516013891454389  0.2538244275829141  0.3908330794197702
  0.7534493361799127  0.7547116525768831  0.3895492631554206
  0.1692124078511234  0.0890034896696447  0.2601533013844493
  0.1681310503806850  0.5855246313069107  0.2639837473464734
  0.6679024636241535  0.0861013202785721  0.2646139795114920
  0.6670487942404176  0.5856074669363514  0.2639905948317303
  0.1681941931496543  0.3382952875494740  0.2642085763187377
  0.1691959146602597  0.8360782156365253  0.2599184183239457
  0.6679252886589595  0.3375216424843447  0.2645641292170715
  0.6672693476595281  0.8372951821757654  0.2640283556336810
  0.4188330608560181  0.0874670859703904  0.2624481245823339
  0.4183894382785476  0.5870916206963078  0.2643590778279980
  0.9181452704679023  0.0874558909363470  0.2626091707333503
  0.9179452099571220  0.5862705378606573  0.2624044694558725
  0.4197313883085968  0.3383477384665866  0.2641682054660150
  0.4196621111120088  0.8372322923690240  0.2640029483394643
  0.9192552730439543  0.3374795428636587  0.2646545728957334
  0.9164035672533066  0.8360639472438937  0.2599616662556934
  0.1672273945046061  0.0844723818260475  0.0628608598736164
  0.1671954795976208  0.5843671796216763  0.0627906221718451
  0.6672841742894938  0.0845329715087276  0.0627081399890217
  0.6672033319967837  0.5844026160221590  0.0627825020905531
  0.1672115133316658  0.3328961827673436  0.0627883885065354
  0.1672430861340295  0.8328184617867470  0.0627903330268430
  0.6672687614430846  0.3329000803039472  0.0627273036134245
  0.6672102782072699  0.8328959177654823  0.0627725625229066
  0.4167954774075505  0.0834407911981132  0.0632518844091241
  0.4166957620228802  0.5833696640878470  0.0632026641447509
  0.9166337261217398  0.0834353941226495  0.0632592448470086
  0.9166627901574501  0.5833495947786103  0.0632042716845331
  0.4157009966974711  0.3328976101840749  0.0627787926612100
  0.4157013814296845  0.8328689050947484  0.0627778981686223
  0.9156172192296110  0.3328989257756445  0.0627186865100095
  0.9155963602861594  0.8328276127077727  0.0628005716829004
  0.0844282766711401  0.1670647868775823  0.9372908372258608
  0.0844579644555287  0.6671745223180193  0.9372349807329992
  0.5843510200019933  0.1671080182838618  0.9371373094879381
  0.5843953120570399  0.6670859681181063  0.9371831205175559
  0.0833245508680983  0.4165646949009321  0.9365968939871591
  0.0833381253647274  0.9166116372667535  0.9369152190775210
  0.5833022548143869  0.4165631856694915  0.9366043046476830
  0.5833235516460661  0.9165739448051313  0.9366161712866837
  0.3326664477525744  0.1670279335427000  0.9372717253338212
  0.3327772412413817  0.6671036997912476  0.9371924958631869
  0.8328039167618005  0.1671179148857409  0.9371336947077032
  0.8328126397042414  0.6671721628070683  0.9372201820091119
  0.3327238279005101  0.4153787091657897  0.9371858399661646
  0.3326781177556415  0.9153925454949788  0.9372792462195692
  0.8327756017164740  0.4155210722345600  0.9371160920625050
  0.8328113757804340  0.9154262638871100  0.9372644807867071
  0.0795700898986295  0.1639666212546939  0.7387907525844555
  0.0794691184655623  0.6593575214329351  0.7379851753271215
  0.5811568592536791  0.1625072433343246  0.7345227821995984
  0.5801227628396759  0.6618971757421779  0.7350893781236844
  0.0808594672540375  0.4124842142967950  0.7355176507664903
  0.0812758598312108  0.9122181126524463  0.7439883844278673
  0.5819530578113374  0.4124744861203971  0.7354828056241323
  0.5817581964128027  0.9131702292187598  0.7355445426208332
  0.3347936239106490  0.1640436339155311  0.7387879151708642
  0.3319708660556497  0.6618985373506445  0.7351053408622291
  0.8316868527614293  0.1624811892363879  0.7345401870689640
  0.8301212932666836  0.6593685292379345  0.7379693315437628
  0.3323508235220726  0.4142894321347755  0.7353156173680768
  0.3344561997551114  0.9142515857669297  0.7383308452229554
  0.8317008588487711  0.4131169943569156  0.7342129245082969
  0.8300755475163112  0.9142055083871627  0.7383763320265094
  0.0850164113630742  0.4204474877011803  0.3274148696836535
  0.0849817004995955  0.9204452190297033  0.3191786691466243
  0.5850664513006741  0.4204634128435351  0.3273339500986071
  0.5850315480670542  0.9204640210861915  0.3272865973592726
  0.4149366145151090  0.0793278513498881  0.6737246099823628
  0.4148216558744784  0.5793217078689262  0.6722022672824313
  0.9147453318370914  0.0792769163204468  0.6737717011326351
  0.9146907771684266  0.5790467332809766  0.6731127247348727
  0.2500091142395584  0.2499666523125974  0.0000719564296386
  0.2500223087091897  0.7499432203483575  0.0000506584872552
  0.7500153334194581  0.2500248031937482 -0.0000924310032005
  0.7499853639396001  0.7499561000564465  0.0000353527708135
  0.3340550000000000  0.6681750000000000  0.4997896326698908
