System                                  
   1.0000000000000000     
    10.2852317212148616   -0.0002002927936414   -5.4002187051931321
    -2.8351896634306994    9.8867470578824275   -5.4002254834420542
     0.0099513128610022    0.0132069081834311   12.5149077806612770
  Mg              Mn              O             
     7    32    64
Direct
     0.1905278419939146    0.3205692931910425    0.3864675750755671
     0.1888964668229376    0.3138675096488492    0.8849159309422584
     0.1929600333419507    0.8140520323463938    0.3828815319918265
     0.1910283919650460    0.8197525718028545    0.8848615771489523
     0.6873174371254780    0.3088916558129717    0.3679436147443599
     0.6954011011260424    0.8212192614680625    0.8801943118034357
     0.8056681493745487    0.6858203799727686    0.1277471380419217
     0.9975578285608325    0.0026012832502859    0.2495550355989354
     0.9960961865786454   -0.0011219598250131    0.7472690088416836
    -0.0044610788156054    0.4943115771821327    0.2465296331248922
     0.0212228193917627    0.5190044554145780    0.7881545947730889
     0.5112100138294882    0.0037885498331997    0.2652486369072408
     0.5012381877929856    1.0012822283459848    0.7488986267103791
     0.4860578020931639    0.4907675953441687    0.2322866188382766
     0.5018253545275383    0.5010964361682865    0.7511158774611459
     0.9843728990624792    0.2434959183754346    0.9839109630746244
     0.9918817984699753    0.2438510366005507    0.4877316049235328
     0.0151917237700298    0.7599443302247835    0.0243004240990275
     0.9978926276305314    0.7477547860043467    0.5006554165005760
     0.4997273544171611    0.2433605779943961    0.9963795066569127
     0.5030139508571863    0.2519171146480107    0.5011379597918879
     0.5001352048983749    0.7513259334382325    0.0025105518340244
     0.4960490035312359    0.7413993559231229    0.4793039915488946
     0.2636071840404481    0.0121335554943506    0.2703879136107175
     0.2573209063278343    0.0069808365938715    0.7604730370261559
     0.2494625325734256    0.4937195886802854    0.2425135092398358
     0.2608546380874006    0.5103322147697222    0.7710288111449555
     0.7484433458556098    0.9947022572803040    0.2408163581783800
     0.7474553699897404    0.9928114642306435    0.7365248807494007
     0.7446397860367507    0.4905703975429209    0.2370921228486687
     0.7598629690280502    0.5086717304539753    0.7690153223698422
     0.9949152164558098    0.9987634490833329    0.9900323610960948
    -0.0020035662776278    0.0001249423453091    0.5009471989937543
     0.0099214134723406    0.5145714442283573    0.0224995086536493
     0.9920834975609059    0.4933965841679016    0.4877186154113441
     0.4972674791009583    0.9992272373838461    0.9959978060766310
     0.5065615135345822    0.0042707666198814    0.5061808607818319
     0.5010004539272369    0.4998280395085632    0.0035039532112338
     0.4891452516186310    0.4853628789617083    0.4717359704474755
     0.3662787343303969    0.3839008995045269    0.2359765914578968
     0.3937298490680869    0.4098235123552762    0.7917938548866872
     0.3950461123510184    0.9104104496800285    0.2902705872530637
     0.3803779712434743    0.9026505003247817    0.7617350270689915
     0.8733279068631085    0.3888238181210389    0.2455156470837169
     0.9087823344847613    0.4216883786239811    0.8167777546471795
     0.8734216606460969    0.8846861085820823    0.2432409546314110
     0.8774399354014265    0.8907928715927740    0.7502088905451824
     0.3741343619447470    0.1143052142431931    0.4750256991712826
     0.3677620229676505    0.1113110777291060    0.9663744656687159
     0.3653408109740232    0.5996126157924176    0.4457082535603588
     0.3758089696595371    0.6147027042324803    0.9773196286975580
     0.8599110401707700    0.0970064516238088    0.4468666725195363
     0.8607622219292389    0.0993056613666780    0.9497013129545855
     0.8590810514052960    0.5953828048892923    0.4465923448872599
     0.8999561240154803    0.6380923981897773    0.0222845765431498
     0.0862708575824053    0.1006724936178148    0.4542636062302172
     0.0865149273111307    0.1066845779321196    0.9576172729750413
     0.0864184457297475    0.6028513398565406    0.4554387408112889
     0.1184336433577562    0.6381412768201087    0.0234901472168812
     0.6066519583298200    0.1279792500445395    0.5004371171363503
     0.6023769775717488    0.1226232931807898    0.9952672042432334
     0.5845539439111714    0.5919265261942895    0.4370802010473605
     0.6091329763446064    0.6242580345134567    0.0029334068033765
     0.1268107953281901    0.1143796270423816    0.2562640320555761
     0.1246363405885267    0.1135222382787758    0.7485839223989821
     0.1173190441550407    0.6075418914382299    0.2365062561357830
     0.1305513343490078    0.6165130795254782    0.7611417294500453
     0.6240959925778318    0.1053387778803725    0.2429739303301582
     0.6062783123851715    0.0908814132325616    0.7103916412861773
     0.6030500071760406    0.5880597136884625    0.2096035584900381
     0.6342486479528899    0.6178838609605097    0.7618770221090209
     0.1218938000691116    0.3867626207856144    0.2488743489115403
     0.1321987675145538    0.3954080617014972    0.7629998979019549
     0.1208775985464043    0.8821913293488901    0.2409346305755213
     0.1286127297106258    0.8887779815224183    0.7512281086484159
     0.6088568745812410    0.3670877754310149    0.2195979474536862
     0.6057354773773631    0.3735547759238640    0.7085528507161477
     0.6071684149492549    0.8680610142320674    0.2096376450361258
     0.6233089377352692    0.8824317675312737    0.7420286285115043
     0.1223736158000581    0.3884918838801594    0.0245893771922037
     0.1301661595166919    0.3905748577510408    0.5326151032413585
     0.1332925556767831    0.8929113895640134    0.0353173530658197
     0.1292277159027529    0.8884909868866121    0.5252302948820873
     0.6208684831308980    0.3867750893837558    0.0249986367423456
     0.6115771758200726    0.3728418093412889    0.4951919282815437
     0.6273139651570200    0.8817133556874891    0.0199907234760319
     0.6253675450815384    0.8898485948066119    0.5260953301699380
     0.3946040787359170    0.1305086009780696    0.2898317704946722
     0.3939373440882913    0.1362254072801379    0.7903650709822172
     0.3673059586203891    0.5982478420289969    0.2359528980732203
     0.3964283266854795    0.6318407534735369    0.7926567563675947
     0.8750514723478787    0.1055103180533408    0.2471107233248675
     0.8750142638074456    0.1056455225683281    0.7461727113552461
     0.8710254646999538    0.6072652882336301    0.2460213543642130
     0.9101012784980549    0.6472579141461706    0.8192100520915794
     0.3928527825498850    0.3820274866028068    0.0150748524767610
     0.3914608706219887    0.3809327532442219    0.5034500262592941
     0.3922075974354677    0.8754388636344786    0.0037050121207382
     0.3916484136963048    0.8741629679688470    0.4986991411066169
     0.9088003265823645    0.3986517177662361    0.0396978154665567
     0.8883431871796512    0.3740691121073095    0.4995335230197866
     0.9034914420682052    0.8914190060904790    0.0308164597016820
     0.9123558328034510    0.8929861401875039    0.5389405975047786

  0.00000000E+00  0.00000000E+00  0.00000000E+00
  0.00000000E+00  0.00000000E+00  0.00000000E+00
  0.00000000E+00  0.00000000E+00  0.00000000E+00
  0.00000000E+00  0.00000000E+00  0.00000000E+00
  0.00000000E+00  0.00000000E+00  0.00000000E+00
  0.00000000E+00  0.00000000E+00  0.00000000E+00
  0.00000000E+00  0.00000000E+00  0.00000000E+00
  0.00000000E+00  0.00000000E+00  0.00000000E+00
  0.00000000E+00  0.00000000E+00  0.00000000E+00
  0.00000000E+00  0.00000000E+00  0.00000000E+00
  0.00000000E+00  0.00000000E+00  0.00000000E+00
  0.00000000E+00  0.00000000E+00  0.00000000E+00
  0.00000000E+00  0.00000000E+00  0.00000000E+00
  0.00000000E+00  0.00000000E+00  0.00000000E+00
  0.00000000E+00  0.00000000E+00  0.00000000E+00
  0.00000000E+00  0.00000000E+00  0.00000000E+00
  0.00000000E+00  0.00000000E+00  0.00000000E+00
  0.00000000E+00  0.00000000E+00  0.00000000E+00
  0.00000000E+00  0.00000000E+00  0.00000000E+00
  0.00000000E+00  0.00000000E+00  0.00000000E+00
  0.00000000E+00  0.00000000E+00  0.00000000E+00
  0.00000000E+00  0.00000000E+00  0.00000000E+00
  0.00000000E+00  0.00000000E+00  0.00000000E+00
  0.00000000E+00  0.00000000E+00  0.00000000E+00
  0.00000000E+00  0.00000000E+00  0.00000000E+00
  0.00000000E+00  0.00000000E+00  0.00000000E+00
  0.00000000E+00  0.00000000E+00  0.00000000E+00
  0.00000000E+00  0.00000000E+00  0.00000000E+00
  0.00000000E+00  0.00000000E+00  0.00000000E+00
  0.00000000E+00  0.00000000E+00  0.00000000E+00
  0.00000000E+00  0.00000000E+00  0.00000000E+00
  0.00000000E+00  0.00000000E+00  0.00000000E+00
  0.00000000E+00  0.00000000E+00  0.00000000E+00
  0.00000000E+00  0.00000000E+00  0.00000000E+00
  0.00000000E+00  0.00000000E+00  0.00000000E+00
  0.00000000E+00  0.00000000E+00  0.00000000E+00
  0.00000000E+00  0.00000000E+00  0.00000000E+00
  0.00000000E+00  0.00000000E+00  0.00000000E+00
  0.00000000E+00  0.00000000E+00  0.00000000E+00
  0.00000000E+00  0.00000000E+00  0.00000000E+00
  0.00000000E+00  0.00000000E+00  0.00000000E+00
  0.00000000E+00  0.00000000E+00  0.00000000E+00
  0.00000000E+00  0.00000000E+00  0.00000000E+00
  0.00000000E+00  0.00000000E+00  0.00000000E+00
  0.00000000E+00  0.00000000E+00  0.00000000E+00
  0.00000000E+00  0.00000000E+00  0.00000000E+00
  0.00000000E+00  0.00000000E+00  0.00000000E+00
  0.00000000E+00  0.00000000E+00  0.00000000E+00
  0.00000000E+00  0.00000000E+00  0.00000000E+00
  0.00000000E+00  0.00000000E+00  0.00000000E+00
  0.00000000E+00  0.00000000E+00  0.00000000E+00
  0.00000000E+00  0.00000000E+00  0.00000000E+00
  0.00000000E+00  0.00000000E+00  0.00000000E+00
  0.00000000E+00  0.00000000E+00  0.00000000E+00
  0.00000000E+00  0.00000000E+00  0.00000000E+00
  0.00000000E+00  0.00000000E+00  0.00000000E+00
  0.00000000E+00  0.00000000E+00  0.00000000E+00
  0.00000000E+00  0.00000000E+00  0.00000000E+00
  0.00000000E+00  0.00000000E+00  0.00000000E+00
  0.00000000E+00  0.00000000E+00  0.00000000E+00
  0.00000000E+00  0.00000000E+00  0.00000000E+00
  0.00000000E+00  0.00000000E+00  0.00000000E+00
  0.00000000E+00  0.00000000E+00  0.00000000E+00
  0.00000000E+00  0.00000000E+00  0.00000000E+00
  0.00000000E+00  0.00000000E+00  0.00000000E+00
  0.00000000E+00  0.00000000E+00  0.00000000E+00
  0.00000000E+00  0.00000000E+00  0.00000000E+00
  0.00000000E+00  0.00000000E+00  0.00000000E+00
  0.00000000E+00  0.00000000E+00  0.00000000E+00
  0.00000000E+00  0.00000000E+00  0.00000000E+00
  0.00000000E+00  0.00000000E+00  0.00000000E+00
  0.00000000E+00  0.00000000E+00  0.00000000E+00
  0.00000000E+00  0.00000000E+00  0.00000000E+00
  0.00000000E+00  0.00000000E+00  0.00000000E+00
  0.00000000E+00  0.00000000E+00  0.00000000E+00
  0.00000000E+00  0.00000000E+00  0.00000000E+00
  0.00000000E+00  0.00000000E+00  0.00000000E+00
  0.00000000E+00  0.00000000E+00  0.00000000E+00
  0.00000000E+00  0.00000000E+00  0.00000000E+00
  0.00000000E+00  0.00000000E+00  0.00000000E+00
  0.00000000E+00  0.00000000E+00  0.00000000E+00
  0.00000000E+00  0.00000000E+00  0.00000000E+00
  0.00000000E+00  0.00000000E+00  0.00000000E+00
  0.00000000E+00  0.00000000E+00  0.00000000E+00
  0.00000000E+00  0.00000000E+00  0.00000000E+00
  0.00000000E+00  0.00000000E+00  0.00000000E+00
  0.00000000E+00  0.00000000E+00  0.00000000E+00
  0.00000000E+00  0.00000000E+00  0.00000000E+00
  0.00000000E+00  0.00000000E+00  0.00000000E+00
  0.00000000E+00  0.00000000E+00  0.00000000E+00
  0.00000000E+00  0.00000000E+00  0.00000000E+00
  0.00000000E+00  0.00000000E+00  0.00000000E+00
  0.00000000E+00  0.00000000E+00  0.00000000E+00
  0.00000000E+00  0.00000000E+00  0.00000000E+00
  0.00000000E+00  0.00000000E+00  0.00000000E+00
  0.00000000E+00  0.00000000E+00  0.00000000E+00
  0.00000000E+00  0.00000000E+00  0.00000000E+00
  0.00000000E+00  0.00000000E+00  0.00000000E+00
  0.00000000E+00  0.00000000E+00  0.00000000E+00
  0.00000000E+00  0.00000000E+00  0.00000000E+00
  0.00000000E+00  0.00000000E+00  0.00000000E+00
  0.00000000E+00  0.00000000E+00  0.00000000E+00
  0.00000000E+00  0.00000000E+00  0.00000000E+00
