System
1.0
10.285231721214862 -0.0002002927936414 -5.400218705193132
-2.8351896634306994 9.886747057882427 -5.400225483442054
0.0099513128610022 0.0132069081834311 12.514907780661277
Mg Mn O 
7 32 64 
direct
0.1909079152214775 0.3169447550460143 0.3847405854248597 Mg
0.1895740168724921 0.317146855579885 0.8841559096134757 Mg
0.1930090065348863 0.816008980290705 0.3865921998362852 Mg
0.1890257607993743 0.8156358519146794 0.8825193760695508 Mg
0.6881412334750152 0.3103539030757175 0.3739216062143347 Mg
0.6884733619916227 0.8098362075499878 0.8696767166648219 Mg
0.8097908842331062 0.6884693157574254 0.1286983022679885 Mg
0.9969724002197133 1.0012538778148548 0.246776623044882 Mn
0.996286912262194 1.0001646581048516 0.749931073350407 Mn
0.0012224717478036 0.4976706379125788 0.2494062167819126 Mn
0.0095748480734949 0.5117441203075265 0.7705815536644721 Mn
0.5081586531656539 1.0022195701485648 0.2616640349942428 Mn
0.4947720659846941 -0.0004673004671251 0.7417502858608179 Mn
0.4889483211491124 0.4931862367292704 0.2372827803015529 Mn
0.5010746026236667 0.4992912166469786 0.7516688421364598 Mn
0.9945095064625499 0.2464328393565532 0.9911889563241975 Mn
0.9982605981902127 0.2484000830601409 0.4964075626975295 Mn
0.0094966556151732 0.7535256493854398 0.0163397337396996 Mn
0.998764500236134 0.7501576854602843 0.5031451824763029 Mn
0.4991292359963964 0.2467423848552657 -0.0006963854223189 Mn
0.5006544732171903 0.2503866004853243 0.5001329019334385 Mn
0.500684379346419 0.750633139452315 0.0021217430563553 Mn
0.4972806276367066 0.7423159701853866 0.4824304388207719 Mn
0.2614738867047595 0.0082005220918576 0.2670189050617228 Mn
0.2562830118846512 0.0078297042190253 0.7617243093434586 Mn
0.2516850278217633 0.4964415041479905 0.245994146182959 Mn
0.2599542880794349 0.5105934206969973 0.7716876610446416 Mn
0.7480485737360189 0.9979405034382005 0.2451599249238651 Mn
0.7453330717177954 0.9951715971413926 0.737564781801582 Mn
0.7447362233442333 0.4927021314156315 0.2381821200222842 Mn
0.7545348779930637 0.5029866300352678 0.7566803978937886 Mn
0.9970201947110856 0.9951987368484579 0.9907744130334437 Mn
0.0017465667124806 0.0056942370849106 0.5055206586248102 Mn
0.005350680976157 0.5084236182515333 0.012826926917299 Mn
0.9944107664216448 0.4952680307623315 0.4910232218846295 Mn
0.4946545283861168 0.9928470398761531 0.9904363127051778 Mn
0.5053469822468367 0.0045971124803188 0.5048378111900554 Mn
0.504279397000372 0.5043984213818816 0.0071981051936601 Mn
0.4909501996522945 0.4883336656026761 0.4782847916086926 Mn
0.369660260800907 0.3867918286522884 0.2402688715791187 O
0.3984668019747056 0.4120394651753435 0.7996692038692478 O
0.3943173071648932 0.9084126237070382 0.2901749552761795 O
0.3783155275032897 0.9028280601662855 0.7586326775055122 O
0.8723844689042523 0.3823610994127947 0.2409283498196954 O
0.8920537407895037 0.4110832832494313 0.7835216520853979 O
0.8738781747080299 0.8877266705705688 0.24410744345966 O
0.8761826678950938 0.8946442539576122 0.7552959431715098 O
0.3720916265215694 0.111642131218094 0.4729723909588544 O
0.371621484876077 0.1094705662737857 0.9685748290590773 O
0.3678616025757718 0.6015875385611726 0.4500948429305878 O
0.3884769818250545 0.6226038576692489 -0.0057303492779378 O
0.8759239564420467 0.1101815590171575 0.4673732344995472 O
0.8658071725518562 0.1089289994379056 0.9671542539530399 O
0.8597185416705236 0.5957122153417371 0.4457578623832427 O
0.8919315609246434 0.6353897365337667 0.0127225837205448 O
0.0874491323267986 0.1000981988329581 0.4505254381185563 O
0.0882612880150587 0.1042429538410625 0.9605072160067353 O
0.0862465130797058 0.6039793594020926 0.4563728500527927 O
0.1116314124064507 0.6321893432462821 0.0118534811492831 O
0.6047202164981063 0.1263464183867978 0.4986144068717851 O
0.6084490873035726 0.125334310782776 0.9984303842569567 O
0.5867739687360667 0.5941034372813973 0.4418069646868861 O
0.612859493373875 0.6260129999558763 0.0050587654586762 O
0.1250642110597474 0.1110632453679985 0.2501422989173612 O
0.1267678940094963 0.1154325170096098 0.7544094707648564 O
0.1245123117584476 0.611841225158547 0.252353421419535 O
0.1270704199961863 0.6145233122728427 0.7537623721107245 O
0.6235572760065432 0.1080160753848693 0.2450055433318089 O
0.604745161453906 0.0925124517421598 0.7108952751423809 O
0.6091624587359471 0.5902705875888985 0.2159794024024034 O
0.6246265865177854 0.6101888110257874 0.7470752648168804 O
0.1234722832227427 0.3858829732792972 0.24977785213215 O
0.1277808599765926 0.3901921101734648 0.7552603901469143 O
0.117557492967294 0.8802707234076182 0.2391399522908994 O
0.1279123821335082 0.8891264562225168 0.7521891912126782 O
0.6110879189335077 0.3674666503975277 0.221794032963729 O
0.6017038019586708 0.3692260358187288 0.705465396064371 O
0.6045463659876297 0.8679952815390681 0.2081432160977692 O
0.6231713094009499 0.8854879756022737 0.7438984894259033 O
0.1287572018070538 0.3870163165052438 0.0269954592144677 O
0.1236255799821218 0.385386614918551 0.5195487651395176 O
0.1330076025385225 0.889531474035 0.0335068240598299 O
0.1321525864957883 0.8929250370903407 0.5312045435908496 O
0.6230811719895808 0.3863664536936739 0.0281652297817798 O
0.6103140210431779 0.3726872744835746 0.4966665767735301 O
0.6165771016982875 0.8763140569737082 1.0037191086131572 O
0.6284022113331179 0.89269950778585 0.5311112276962913 O
0.391994123574313 0.1277512708627764 0.2873229673478629 O
0.3939239759412562 0.1389599062801741 0.7937824928224058 O
0.3707425466554763 0.6012650665097481 0.2407242435180262 O
0.3992202596131354 0.6323406972518599 0.7953839451916677 O
0.8755467159593276 0.1112034046701584 0.2390191154731652 O
0.8765140737140491 0.1091838797783424 0.7536389276740991 O
0.8722493321368695 0.6060605107737663 0.2447008779953681 O
0.9048262239193896 0.647706275074623 0.8125858250863025 O
0.3954997760635531 0.3828446359304126 0.0178536381524127 O
0.3897080707716087 0.3783148008578344 0.5023852201192428 O
0.3900497974030605 0.873952013792666 0.0016696939517722 O
0.3922531753789221 0.8753609459709785 0.5009762525062159 O
0.9133034806864059 0.3949593980202056 0.0423129497484996 O
0.88902849767994 0.3774421826341691 0.5025968438606716 O
0.9002073809577126 0.8900423414869338 0.0267442502591488 O
0.9139955200010831 0.8960836375372927 0.542906453389864 O
