System                                  
   1.0000000000000000     
    -0.0000085715521701    3.4213242555372059    3.4213258478212225
     3.4213223734099301   -0.0000074749120658    3.4213247494514758
     3.4213213300197083    3.4213221486081307   -0.0000064384847661
  Li              Hg              Pb            
     1     1     1
Direct
     0.2500001546581464    0.2500001121860386    0.2500000063027706
    -0.0000000166262078   -0.0000000047448127    0.0000000229118073
     0.7499998619680615    0.7499998925587742    0.7499999707854221

  0.00000000E+00  0.00000000E+00  0.00000000E+00
  0.00000000E+00  0.00000000E+00  0.00000000E+00
  0.00000000E+00  0.00000000E+00  0.00000000E+00
