System                                  
   1.0000000000000000     
     0.0140290920298537    5.1271667226108049    4.9228266109855108
     3.8736981303611100    1.2035177187483117    3.8255099939861625
     3.9441967709699206    4.0764274039479478    1.0573447776260301
  P               Cl              O             
     1     1     5
Direct
     0.5382776225332554    0.4920632404820126    0.4990480867384570
     0.8337090477974753    0.1412451108877374    0.1326066780810476
     0.5441733411956319    0.3498916639400166    0.3204268522502758
     0.3223876335621612    0.3551501618860072    0.8847321770668188
     0.3439960974763914    0.9035377240716632    0.3620376836819802
     0.8064371209499176    0.3922276428829332    0.4462741666081805
     0.8610191364851412    0.6158844558495906    0.6048743555732288

  0.00000000E+00  0.00000000E+00  0.00000000E+00
  0.00000000E+00  0.00000000E+00  0.00000000E+00
  0.00000000E+00  0.00000000E+00  0.00000000E+00
  0.00000000E+00  0.00000000E+00  0.00000000E+00
  0.00000000E+00  0.00000000E+00  0.00000000E+00
  0.00000000E+00  0.00000000E+00  0.00000000E+00
  0.00000000E+00  0.00000000E+00  0.00000000E+00
