System                                  
   1.0000000000000000     
     0.1185999819841552    4.5169504115407184    4.5387923233062679
     3.5890615108389312    0.3536241513816902    4.2988906899353898
     3.5779620785906912    4.2632426891170034    0.3667545613830061
  P               Cl              O             
     1     1     5
Direct
     0.5094766376557811    0.4855015309070796    0.4858969836362573
    -0.0703415650823523    0.0705045943433436    0.0852418163474055
     0.4453060042878317    0.3542698422780229    0.3607362616593939
     0.3806718157080122    0.3996807634312493    0.8390135016438964
     0.3869331299569421    0.8361005620668558    0.3951394464449806
     0.8471498280474388    0.3530384006662056    0.3533657160560610
     0.7508041494263245    0.7509043063072157    0.7306062742119916

  0.00000000E+00  0.00000000E+00  0.00000000E+00
  0.00000000E+00  0.00000000E+00  0.00000000E+00
  0.00000000E+00  0.00000000E+00  0.00000000E+00
  0.00000000E+00  0.00000000E+00  0.00000000E+00
  0.00000000E+00  0.00000000E+00  0.00000000E+00
  0.00000000E+00  0.00000000E+00  0.00000000E+00
  0.00000000E+00  0.00000000E+00  0.00000000E+00
