System                                  
   1.0000000000000000     
     5.4859145010211527    0.1338288516861538    8.6164207987824817
     2.5758819073863299    4.9479114067443746    8.6396144936902601
     0.1105739846858174    0.1174199295535371   10.2682327944749492
  Li              Co              O             
     2     8    16
Direct
     0.2530008431104318    0.2482418772749226    0.7468390740555068
     0.2541611601470248    0.7452738711913073    0.2485164195029096
     0.9963650528838983   -0.0001972569045025    0.9986204163973315
     0.9989687446268148    0.9991457257622324    0.4995710298647883
     0.9990217716941432    0.4986317193663493    1.0000829312571275
     1.0001880489289845    0.4979244778572777    0.4967726245195294
     0.5007320186814906    0.0010979396144806    0.0020559164403169
     0.4997498895070818    0.0006415529185265    0.5013531540607800
     0.4998054695149658    0.5024666720156379   -0.0005633497510797
     0.5003790330579164    0.5001080908577278    0.5010685811599099
     0.1357889742277605    0.1290986938053996    0.1291360709352892
     0.1341625307692582    0.1357575367807084    0.6323803049238327
     0.1341802086826387    0.6344084957954375    0.1337984409059522
     0.1313569408863988    0.6314214413291407    0.6315660650327168
     0.6323329120185908    0.1377068977314530    0.1356520566914540
     0.6256525955674815    0.1338840864100057    0.6407183033270001
     0.6257409269195622    0.6407556977391961    0.1337397872243694
     0.6251492680313132    0.6424612216474799    0.6404913439598753
     0.3645335790490304    0.3698056489655390    0.3697975982494527
     0.3613492165174153    0.3640367517507411    0.8703630776455390
     0.3614057363699625    0.8683430719180538    0.3659283766486378
     0.3565261497772862    0.8742543526379338    0.8742030638374054
     0.8743601798273313    0.3589459341247819    0.3606169265146319
     0.8769982728459764    0.3624828471983488    0.8590115438945481
     0.8769930966456599    0.8592513988331538    0.3622553586583663
     0.8720180034170465    0.8610533865468695    0.8626985227291577

  0.00000000E+00  0.00000000E+00  0.00000000E+00
  0.00000000E+00  0.00000000E+00  0.00000000E+00
  0.00000000E+00  0.00000000E+00  0.00000000E+00
  0.00000000E+00  0.00000000E+00  0.00000000E+00
  0.00000000E+00  0.00000000E+00  0.00000000E+00
  0.00000000E+00  0.00000000E+00  0.00000000E+00
  0.00000000E+00  0.00000000E+00  0.00000000E+00
  0.00000000E+00  0.00000000E+00  0.00000000E+00
  0.00000000E+00  0.00000000E+00  0.00000000E+00
  0.00000000E+00  0.00000000E+00  0.00000000E+00
  0.00000000E+00  0.00000000E+00  0.00000000E+00
  0.00000000E+00  0.00000000E+00  0.00000000E+00
  0.00000000E+00  0.00000000E+00  0.00000000E+00
  0.00000000E+00  0.00000000E+00  0.00000000E+00
  0.00000000E+00  0.00000000E+00  0.00000000E+00
  0.00000000E+00  0.00000000E+00  0.00000000E+00
  0.00000000E+00  0.00000000E+00  0.00000000E+00
  0.00000000E+00  0.00000000E+00  0.00000000E+00
  0.00000000E+00  0.00000000E+00  0.00000000E+00
  0.00000000E+00  0.00000000E+00  0.00000000E+00
  0.00000000E+00  0.00000000E+00  0.00000000E+00
  0.00000000E+00  0.00000000E+00  0.00000000E+00
  0.00000000E+00  0.00000000E+00  0.00000000E+00
  0.00000000E+00  0.00000000E+00  0.00000000E+00
  0.00000000E+00  0.00000000E+00  0.00000000E+00
  0.00000000E+00  0.00000000E+00  0.00000000E+00
