System
1.0
5.495126679327197 0.1440657010552521 8.634475712077492
2.5756545582665664 4.946730601734926 8.666669193063194
0.1128881008172135 0.1370800280277442 10.288306728095156
Li Co O 
2 8 16 
direct
0.246099933014324 0.2506061864014789 0.7458357748338342 Li
0.2470983290445257 0.7439397411117805 0.2508942232255331 Li
0.9980833016830313 1.000484169670269 0.9995399236463469 Co
0.9981227190629198 0.9977705397997774 0.4991793933037404 Co
0.9983736254492791 0.4983677817640822 0.9992918771556655 Co
0.997912951069223 0.4987705603571753 0.4979302559879434 Co
0.5018238259288478 0.0019540875670852 0.0025513634370825 Co
0.5017811903769396 0.0013366293448241 0.5007012763026597 Co
0.5022955670555257 0.5015647013688559 0.0007356453585424 Co
0.5008791949393505 0.5001918203169474 0.5005408315024464 Co
0.1419048412845181 0.1295336146799004 0.1250344625404541 O
0.1391423515221953 0.1253169989953642 0.6350367667564293 O
0.1356114651948748 0.640157864168343 0.1254721313496144 O
0.1388590778551041 0.6242424326675662 0.6317122989221833 O
0.630435754790548 0.136975669284461 0.1391038791415722 O
0.6190960693398794 0.1385034941500417 0.6442360319443368 O
0.6231567844706134 0.6424243115855558 0.1353878075081436 O
0.6194362016839933 0.6456064378430793 0.6373398338929982 O
0.3629061236952113 0.3683625386634372 0.3739238591282248 O
0.3618173430213221 0.3722086747136921 0.8658017001422542 O
0.3668091131459638 0.8602754748178387 0.3711058032685671 O
0.3616168873308642 0.8748113833005781 0.870594197803688 O
0.8677198035367241 0.364731660286821 0.3590212677558534 O
0.8786358458438007 0.360813225540804 0.8593480052336221 O
0.8752994798779192 0.8611869622967628 0.3629204466423064 O
0.8760028434879635 0.8568651724716791 0.863434581901278 O
