System                                  
   1.0000000000000000     
     5.6167468810593553   -0.0017184474426853    8.4299610485704157
     2.5498929176051597    5.0045863552082901    8.4299605068021499
    -0.0028044976060490   -0.0017191345599564   10.1297616033087774
  Rb              Li              Fe              F             
     4     2     2    12
Direct
     0.8727919494498066    0.8727921404161887    0.8727921017348278
     0.1272079891734652    0.1272078696959103    0.1272079676285492
     0.2845384137804901    0.2845383223915685    0.2845383830957931
     0.7154614931295186    0.7154616289681117    0.7154617075077730
     0.4041506827525910    0.4041507251654923    0.4041506731461356
     0.5958494535795352    0.5958492801654988    0.5958492209623961
     0.0000000471161293    0.0000000037114024   -0.0000000182252934
     0.4999999101091393    0.5000000165297176    0.5000000268745503
     0.3902112753285513    0.8441315550876487    0.3902112985406392
     0.6097887247368606    0.1558684004435953    0.6097887225141262
     0.6097887173882413    0.6097887289776386    0.1558683426425359
     0.1558683327188732    0.6097887063895424    0.6097887222563707
     0.7203434577733693    0.1979580941968181    0.1979580227344616
     0.2796566419496617    0.8020419539552898    0.8020418795035882
     0.1979579443758172    0.7203434296304885    0.1979581686618400
     0.8020420630103701    0.2796565519010548    0.8020418717355435
     0.8441314837364772    0.3902113226366634    0.3902113138646160
     0.8020420459567305    0.8020418177821966    0.2796566731902216
     0.1979580626969973    0.1979581644669888    0.7203433255148168
     0.3902113112373821    0.3902112874881851    0.8441315961165091

  0.00000000E+00  0.00000000E+00  0.00000000E+00
  0.00000000E+00  0.00000000E+00  0.00000000E+00
  0.00000000E+00  0.00000000E+00  0.00000000E+00
  0.00000000E+00  0.00000000E+00  0.00000000E+00
  0.00000000E+00  0.00000000E+00  0.00000000E+00
  0.00000000E+00  0.00000000E+00  0.00000000E+00
  0.00000000E+00  0.00000000E+00  0.00000000E+00
  0.00000000E+00  0.00000000E+00  0.00000000E+00
  0.00000000E+00  0.00000000E+00  0.00000000E+00
  0.00000000E+00  0.00000000E+00  0.00000000E+00
  0.00000000E+00  0.00000000E+00  0.00000000E+00
  0.00000000E+00  0.00000000E+00  0.00000000E+00
  0.00000000E+00  0.00000000E+00  0.00000000E+00
  0.00000000E+00  0.00000000E+00  0.00000000E+00
  0.00000000E+00  0.00000000E+00  0.00000000E+00
  0.00000000E+00  0.00000000E+00  0.00000000E+00
  0.00000000E+00  0.00000000E+00  0.00000000E+00
  0.00000000E+00  0.00000000E+00  0.00000000E+00
  0.00000000E+00  0.00000000E+00  0.00000000E+00
  0.00000000E+00  0.00000000E+00  0.00000000E+00
