System
1.0
5.539297925481241 -0.0103292513274637 8.288292136202054
2.507039554746331 4.939502087418435 8.288292136202056
-0.0168614401752298 -0.010329289952522 9.968918149261407
Rb Li Fe F 
4 2 2 12 
direct
0.8731233705341725 0.8731233705341729 0.8731233705343149 Rb
0.126876629465827 0.126876629465827 0.12687662946568462 Rb
0.2851448941832483 0.2851448941832484 0.28514489418373873 Rb
0.7148551058167514 0.7148551058167514 0.7148551058162612 Rb
0.404294580392536 0.4042945803925361 0.4042945803926116 Li
0.5957054196074641 0.595705419607464 0.5957054196073882 Li
0.0 0.0 0.0 Fe
0.5 0.5 0.49999999999999983 Fe
0.3927265258368195 0.8356319532112761 0.39272652585372236 F
0.6072734741631809 0.16436804678872338 0.6072734741462774 F
0.6072734741490359 0.6072734741490359 0.1643680467961534 F
0.16436804678872338 0.6072734741631808 0.6072734741462774 F
0.725388577523369 0.1945267894664734 0.194526789459867 F
0.2746114224766308 0.8054732105335266 0.8054732105401329 F
0.19452678946647334 0.725388577523369 0.19452678945986712 F
0.8054732105335265 0.27461142247663073 0.8054732105401329 F
0.8356319532112763 0.3927265258368194 0.39272652585372236 F
0.8054732105440227 0.8054732105440228 0.2746114224650468 F
0.19452678945597723 0.19452678945597718 0.7253885775349532 F
0.3927265258509643 0.39272652585096424 0.8356319532038462 F
