System                                  
   1.0000000000000000     
    10.3626541995670749    0.6680397148495248    5.8900744478487770
     3.5100475804119782   10.0732086450450389    5.5779958001142633
    -0.2770176937874708    0.4281704396772118   11.5097365705302366
  Li              Mn              O             
    12    32    64
Direct
     0.0652164003162071    0.0662369182701145    0.0573318756760750
     0.0678197048536915    0.5673461877553556    0.0616513074794681
     0.0723546987241539    0.5705202426478041    0.5521486137930721
     0.5666053418362906    0.0660326115850692    0.0607892516922865
     0.5705431953847452    0.0723485558253811    0.5495907732423838
     0.5702373408325428    0.5697074174612464    0.0550316000224364
     0.4296373578847971    0.4300684140594356    0.9452618940453790
     0.4295514159751824    0.9278538722395544    0.4505079175051802
     0.4332593581219304    0.9340661783833082    0.9391492023134845
     0.9280477461999728    0.4294333402283541    0.4476735920484030
     0.9320304308644171    0.4328438619495272    0.9384980594626005
     0.9347726296461489    0.9337033779508472    0.9426675962759029
     0.2431657684708030    0.2462602749232261    0.0041090428791131
     0.2495638069818296    0.2488812157048521    0.5030086038716679
     0.2516208025612278    0.7490106400332213    0.0013762120850847
     0.2483642370715603    0.7539109798494692    0.5016138634307868
     0.7486058855553198    0.2508904282520603    0.9985826024987086
     0.7513536261470750    0.2466496913360531    0.4984877589484600
     0.7567964744640423    0.7536786895327705    0.9958797404677794
     0.7503380500365330    0.7507945674307501    0.4973569242298568
     0.2473573944041407    0.9987017706344715    0.2552386858034790
     0.2480360216858251    0.9991177944155072    0.7511923738168790
     0.2515324160416394    0.4990070406390499    0.2527482690029234
     0.2498346719595670    0.4982203778701894    0.7524245143078584
     0.7521965256067911    0.0005889178879288    0.2490340955237408
     0.7526386856499622    0.0014491995831467    0.7447383876435446
     0.7501965546319568    0.5018880517271854    0.2475323107739379
     0.7486073614634228    0.5009372897408362    0.7471998569377367
     0.9972903523417922    0.2483561886727176    0.2528827249260615
     0.9992445890595935    0.2470274059641009    0.7497094527263934
     0.0007890171391050    0.7528196853071172    0.2504315555316605
     0.0027721958951183    0.7515096695138445    0.7472856823217668
     0.4988934218470604    0.2506147598389353    0.2509680779222686
     0.4972347495755440    0.2495207385731575    0.7505126437329143
     0.5025791821066694    0.7508612132876237    0.2494507482661966
     0.5012719455303902    0.7489643085923388    0.7491332098242369
     0.2443905798374126    0.2437458173212145    0.2611239513186531
     0.2485085516884728    0.2498988470006751    0.7505208085520718
     0.2531649190815048    0.7544672467997636    0.2469655069472566
     0.2467799553787815    0.7470600032560814    0.7562719956505384
     0.7534477661995139    0.2527768518260285    0.2437879915663784
     0.7466609318870968    0.2459030046746360    0.7529864891872660
     0.7513237663727744    0.7500904707552318    0.2496689564070532
     0.7556140169258515    0.7561463996148142    0.7389982595903209
     0.1332056112174660    0.1325378161202120    0.3535250595452736
     0.1377598118320528    0.1365957094941242    0.8516106258025041
     0.1416724135544360    0.6433270369743185    0.3498107098960908
     0.1327217676481857    0.6349510985270286    0.8552082598582211
     0.6432398467329737    0.1399810361227987    0.3471525660246587
     0.6352954212400407    0.1301050689769860    0.8524838414905074
     0.6419916157123854    0.6395011917529737    0.3427991387283842
     0.6439875025912988    0.6431045206057336    0.8467915774074134
     0.1227068336464309    0.3507993856809020    0.1381010621179576
     0.1395275624556101    0.3621260152837361    0.6240448377689715
     0.1432775484264327    0.8625973418196249    0.1199491241409021
     0.1219237773854406    0.8512311721779117    0.6406360197167887
     0.6410011570969025    0.3636775550429420    0.1200587735811004
     0.6390771330261840    0.3476590158153542    0.6268119782123445
     0.6408086743406753    0.8608649108012103    0.1202739153036759
     0.6426881985179790    0.8644246619561383    0.6191422099181139
     0.3504252347755628    0.1238792760458065    0.1410268914415962
     0.3618519988576047    0.1394713837185961    0.6279049569436795
     0.3635793868693952    0.6409987736144752    0.1269508211345748
     0.3503876424537964    0.6438794768188266    0.6304183200415333
     0.8620246065874702    0.1425953958075882    0.1202724088545831
     0.8510344556262377    0.1219266709525991    0.6411446706945492
     0.8648203115194374    0.6434688723061622    0.1208164108121008
     0.8632367805872441    0.6419804546829413    0.6233289496471930
     0.1313711291042114    0.1340691736865982    0.1305467291204853
     0.1385824279507967    0.1393923023234649    0.6256370417103434
     0.1391533467927044    0.6373264448559293    0.1266400861473279
     0.1320078036690988    0.6418278110350594    0.6252475131964255
     0.6352298334385765    0.1400640697284948    0.1241894805638540
     0.6454594242973136    0.1293572056947257    0.6188026210711121
     0.6479459529059122    0.6409306151083628    0.1110007628009116
     0.6385675998218830    0.6419094083634078    0.6237426574111787
     0.3561382682384100    0.3567363561453496    0.1533530415087393
     0.3577067554457666    0.3607743322777178    0.6572958009269091
     0.3647658108838448    0.8700210849833523    0.1473233559384346
     0.3568684777033497    0.8597991923036676    0.6530282013497083
     0.8675476059529158    0.3648178981269037    0.1448569805531963
     0.8583678106337348    0.3565310621767508    0.6502236836707745
     0.8623929519317661    0.8633169385793872    0.1484104219956712
     0.8668453292054064    0.8675331868497118    0.6466337723148609
     0.3573139040539116    0.1353248618490457    0.3810726638948430
     0.3591842534791488    0.1391303808110875    0.8797098823766812
     0.3605777814950913    0.6530674490967775    0.3731297155050382
     0.3592062588892133    0.6362165186061289    0.8799600142615247
     0.8778927663823196    0.1488299830887135    0.3597931386582203
     0.8567206672524434    0.1373815753765781    0.8800875269357212
     0.8604475836171352    0.6377345377643407    0.3760625497246831
     0.8773535791580391    0.6490607837826524    0.8620739713460477
     0.1367337324127661    0.3578030860277115    0.3769637061096755
     0.1350979070273031    0.3564638100357872    0.8792859282218631
     0.1487872222523833    0.8784249545780081    0.3587601454639777
     0.1380810047356488    0.8573416844538029    0.8798943779341755
     0.6496651428913069    0.3563939999906832    0.3693809061524781
     0.6365030499532419    0.3591004669405155    0.8730964117898883
     0.6382631513007243    0.8603174943923554    0.3722378599292181
     0.6496762621176855    0.8761085170376188    0.8589591026789599
     0.3614429171976385    0.3576895899491151    0.3764263223755804
     0.3520376040432583    0.3589980352338321    0.8890794843290013
     0.3544518296227687    0.8710322883897705    0.3812640653383640
     0.3649631118757459    0.8597575080010478    0.8758680836303194
     0.8679435904541486    0.3585072632767139    0.3746390722483311
     0.8610572251513268    0.3624729314917007    0.8734636685653542
     0.8615446151795225    0.8602966623534811    0.3746007032725547
     0.8685841749220865    0.8659330822098328    0.8695545280993949

  0.00000000E+00  0.00000000E+00  0.00000000E+00
  0.00000000E+00  0.00000000E+00  0.00000000E+00
  0.00000000E+00  0.00000000E+00  0.00000000E+00
  0.00000000E+00  0.00000000E+00  0.00000000E+00
  0.00000000E+00  0.00000000E+00  0.00000000E+00
  0.00000000E+00  0.00000000E+00  0.00000000E+00
  0.00000000E+00  0.00000000E+00  0.00000000E+00
  0.00000000E+00  0.00000000E+00  0.00000000E+00
  0.00000000E+00  0.00000000E+00  0.00000000E+00
  0.00000000E+00  0.00000000E+00  0.00000000E+00
  0.00000000E+00  0.00000000E+00  0.00000000E+00
  0.00000000E+00  0.00000000E+00  0.00000000E+00
  0.00000000E+00  0.00000000E+00  0.00000000E+00
  0.00000000E+00  0.00000000E+00  0.00000000E+00
  0.00000000E+00  0.00000000E+00  0.00000000E+00
  0.00000000E+00  0.00000000E+00  0.00000000E+00
  0.00000000E+00  0.00000000E+00  0.00000000E+00
  0.00000000E+00  0.00000000E+00  0.00000000E+00
  0.00000000E+00  0.00000000E+00  0.00000000E+00
  0.00000000E+00  0.00000000E+00  0.00000000E+00
  0.00000000E+00  0.00000000E+00  0.00000000E+00
  0.00000000E+00  0.00000000E+00  0.00000000E+00
  0.00000000E+00  0.00000000E+00  0.00000000E+00
  0.00000000E+00  0.00000000E+00  0.00000000E+00
  0.00000000E+00  0.00000000E+00  0.00000000E+00
  0.00000000E+00  0.00000000E+00  0.00000000E+00
  0.00000000E+00  0.00000000E+00  0.00000000E+00
  0.00000000E+00  0.00000000E+00  0.00000000E+00
  0.00000000E+00  0.00000000E+00  0.00000000E+00
  0.00000000E+00  0.00000000E+00  0.00000000E+00
  0.00000000E+00  0.00000000E+00  0.00000000E+00
  0.00000000E+00  0.00000000E+00  0.00000000E+00
  0.00000000E+00  0.00000000E+00  0.00000000E+00
  0.00000000E+00  0.00000000E+00  0.00000000E+00
  0.00000000E+00  0.00000000E+00  0.00000000E+00
  0.00000000E+00  0.00000000E+00  0.00000000E+00
  0.00000000E+00  0.00000000E+00  0.00000000E+00
  0.00000000E+00  0.00000000E+00  0.00000000E+00
  0.00000000E+00  0.00000000E+00  0.00000000E+00
  0.00000000E+00  0.00000000E+00  0.00000000E+00
  0.00000000E+00  0.00000000E+00  0.00000000E+00
  0.00000000E+00  0.00000000E+00  0.00000000E+00
  0.00000000E+00  0.00000000E+00  0.00000000E+00
  0.00000000E+00  0.00000000E+00  0.00000000E+00
  0.00000000E+00  0.00000000E+00  0.00000000E+00
  0.00000000E+00  0.00000000E+00  0.00000000E+00
  0.00000000E+00  0.00000000E+00  0.00000000E+00
  0.00000000E+00  0.00000000E+00  0.00000000E+00
  0.00000000E+00  0.00000000E+00  0.00000000E+00
  0.00000000E+00  0.00000000E+00  0.00000000E+00
  0.00000000E+00  0.00000000E+00  0.00000000E+00
  0.00000000E+00  0.00000000E+00  0.00000000E+00
  0.00000000E+00  0.00000000E+00  0.00000000E+00
  0.00000000E+00  0.00000000E+00  0.00000000E+00
  0.00000000E+00  0.00000000E+00  0.00000000E+00
  0.00000000E+00  0.00000000E+00  0.00000000E+00
  0.00000000E+00  0.00000000E+00  0.00000000E+00
  0.00000000E+00  0.00000000E+00  0.00000000E+00
  0.00000000E+00  0.00000000E+00  0.00000000E+00
  0.00000000E+00  0.00000000E+00  0.00000000E+00
  0.00000000E+00  0.00000000E+00  0.00000000E+00
  0.00000000E+00  0.00000000E+00  0.00000000E+00
  0.00000000E+00  0.00000000E+00  0.00000000E+00
  0.00000000E+00  0.00000000E+00  0.00000000E+00
  0.00000000E+00  0.00000000E+00  0.00000000E+00
  0.00000000E+00  0.00000000E+00  0.00000000E+00
  0.00000000E+00  0.00000000E+00  0.00000000E+00
  0.00000000E+00  0.00000000E+00  0.00000000E+00
  0.00000000E+00  0.00000000E+00  0.00000000E+00
  0.00000000E+00  0.00000000E+00  0.00000000E+00
  0.00000000E+00  0.00000000E+00  0.00000000E+00
  0.00000000E+00  0.00000000E+00  0.00000000E+00
  0.00000000E+00  0.00000000E+00  0.00000000E+00
  0.00000000E+00  0.00000000E+00  0.00000000E+00
  0.00000000E+00  0.00000000E+00  0.00000000E+00
  0.00000000E+00  0.00000000E+00  0.00000000E+00
  0.00000000E+00  0.00000000E+00  0.00000000E+00
  0.00000000E+00  0.00000000E+00  0.00000000E+00
  0.00000000E+00  0.00000000E+00  0.00000000E+00
  0.00000000E+00  0.00000000E+00  0.00000000E+00
  0.00000000E+00  0.00000000E+00  0.00000000E+00
  0.00000000E+00  0.00000000E+00  0.00000000E+00
  0.00000000E+00  0.00000000E+00  0.00000000E+00
  0.00000000E+00  0.00000000E+00  0.00000000E+00
  0.00000000E+00  0.00000000E+00  0.00000000E+00
  0.00000000E+00  0.00000000E+00  0.00000000E+00
  0.00000000E+00  0.00000000E+00  0.00000000E+00
  0.00000000E+00  0.00000000E+00  0.00000000E+00
  0.00000000E+00  0.00000000E+00  0.00000000E+00
  0.00000000E+00  0.00000000E+00  0.00000000E+00
  0.00000000E+00  0.00000000E+00  0.00000000E+00
  0.00000000E+00  0.00000000E+00  0.00000000E+00
  0.00000000E+00  0.00000000E+00  0.00000000E+00
  0.00000000E+00  0.00000000E+00  0.00000000E+00
  0.00000000E+00  0.00000000E+00  0.00000000E+00
  0.00000000E+00  0.00000000E+00  0.00000000E+00
  0.00000000E+00  0.00000000E+00  0.00000000E+00
  0.00000000E+00  0.00000000E+00  0.00000000E+00
  0.00000000E+00  0.00000000E+00  0.00000000E+00
  0.00000000E+00  0.00000000E+00  0.00000000E+00
  0.00000000E+00  0.00000000E+00  0.00000000E+00
  0.00000000E+00  0.00000000E+00  0.00000000E+00
  0.00000000E+00  0.00000000E+00  0.00000000E+00
  0.00000000E+00  0.00000000E+00  0.00000000E+00
  0.00000000E+00  0.00000000E+00  0.00000000E+00
  0.00000000E+00  0.00000000E+00  0.00000000E+00
  0.00000000E+00  0.00000000E+00  0.00000000E+00
  0.00000000E+00  0.00000000E+00  0.00000000E+00
