System                                  
   1.0000000000000000     
     5.1898134696376355   -0.0000104280812694   -0.0000026719276942
    -2.5949156436081879    4.4945051426673732   -0.0000034573888797
    -0.0000050079344109   -0.0000103589346313    9.7081050681853789
  Li              Cr              Cd              F             
     2     2     2    12
Direct
     0.3333335312229597    0.6666664274042431    0.7499999998393866
     0.6666664504969093    0.3333335319364874    0.2500000087767910
     0.6666667501848744    0.3333331135654127    0.7499999636378167
     0.3333333670888822    0.6666668990765157    0.2500000888728334
    -0.0000000176403560    0.0000000152225163    0.4999999589599957
     0.0000000143907363    0.0000000204663189    0.0000000288790174
     0.0134200371311215    0.6512581859969155    0.1385412411012575
     0.6378381239131117    0.6512572672825773    0.3614585507635555
     0.9865799716361854    0.3487417327301142    0.8614587253512817
     0.3621618493514910    0.3487426705480035    0.6385414082036596
     0.3487427394593281    0.3621619035070847    0.1385414315598225
     0.9865806959776332    0.6378380761649508    0.6385417187298607
     0.6512572584462378    0.6378380936277751    0.8614585967102580
     0.3621619121247312    0.0134191921161242    0.8614583131997533
     0.3487420434906419    0.9865800777481266    0.3614588162091574
     0.6512580223910410    0.0134199345736966    0.6385411862815806
     0.0134191510928775    0.3621619835229418    0.3614582377552384
     0.6378380992415940    0.9865808745101957    0.1385417251687342

  0.00000000E+00  0.00000000E+00  0.00000000E+00
  0.00000000E+00  0.00000000E+00  0.00000000E+00
  0.00000000E+00  0.00000000E+00  0.00000000E+00
  0.00000000E+00  0.00000000E+00  0.00000000E+00
  0.00000000E+00  0.00000000E+00  0.00000000E+00
  0.00000000E+00  0.00000000E+00  0.00000000E+00
  0.00000000E+00  0.00000000E+00  0.00000000E+00
  0.00000000E+00  0.00000000E+00  0.00000000E+00
  0.00000000E+00  0.00000000E+00  0.00000000E+00
  0.00000000E+00  0.00000000E+00  0.00000000E+00
  0.00000000E+00  0.00000000E+00  0.00000000E+00
  0.00000000E+00  0.00000000E+00  0.00000000E+00
  0.00000000E+00  0.00000000E+00  0.00000000E+00
  0.00000000E+00  0.00000000E+00  0.00000000E+00
  0.00000000E+00  0.00000000E+00  0.00000000E+00
  0.00000000E+00  0.00000000E+00  0.00000000E+00
  0.00000000E+00  0.00000000E+00  0.00000000E+00
  0.00000000E+00  0.00000000E+00  0.00000000E+00
