System
1.0
5.1204874931772455 -2.5368511e-09 3e-16
-2.5602436249517733 4.43447231907906 3e-16
-0.0 -0.0 9.592473078441369
Li Cr Cd F 
2 2 2 12 
direct
0.3333333333333357 0.6666666666666643 0.7500000000000001 Li
0.6666666666666643 0.3333333333333357 0.25 Li
0.6666666666666643 0.3333333333333357 0.7500000000000001 Cr
0.3333333333333357 0.6666666666666643 0.25 Cr
0.0 0.0 0.5 Cd
0.0 0.0 0.0 Cd
0.012730599230251582 0.6485529427029909 0.1383119748773649 F
0.6358223434729141 0.6485529427034107 0.361688025122635 F
0.9872694007697482 0.3514470572970093 0.861688025122635 F
0.3641776565270857 0.3514470572965892 0.638311974877365 F
0.35144705729658915 0.3641776565270858 0.1383119748773649 F
0.9872694007699232 0.6358223434731594 0.638311974877365 F
0.6485529427034107 0.6358223434729142 0.861688025122635 F
0.3641776565268409 0.0127305992300766 0.861688025122635 F
0.3514470572970092 0.9872694007697483 0.361688025122635 F
0.6485529427029909 0.0127305992302516 0.638311974877365 F
0.01273059923007658 0.3641776565268409 0.361688025122635 F
0.6358223434731592 0.9872694007699232 0.1383119748773649 F
