System                                  
   1.0000000000000000     
     4.7932695924364692    0.0099645808251373   -2.7585673023217581
     1.5921743488020728    4.6377604128887979   -2.7608919926768820
    -0.0084499529619526   -0.0021328612571991    5.5299660092600416
  Li              Fe              O             
     7     1     6
Direct
     0.2338815436966329    0.3229128996246214    0.5040083753452836
     0.1167561939200629    0.6766352774533456    0.2798154959779458
     0.4839176089032565    0.6767279555653175    0.8830918983810262
     0.6533591499991582    0.0375334011301227    0.3466821061146040
     0.4957985743049685    0.3227894201342229    0.0550745566970303
     0.9447523280470111    0.3228529709720859    0.7659446912546828
     0.7198989607253827    0.6765850822519429    0.5158447471914659
    -0.0000255110142259    0.9973384496810918    0.9998081441178757
     0.0736985315634190    0.7606054099854576    0.6362460821353623
     0.2292305280102217    0.2365434541354035    0.1176503553408590
     0.6493010921374440    0.2366554407082891    0.7706172024373821
     0.3634780161054860    0.7604893456623654    0.2002825443934196
     0.7994460495017808    0.7605268800862821    0.9259778996724501
     0.8822259340994152    0.2365190126094446    0.3504799009406324

  0.00000000E+00  0.00000000E+00  0.00000000E+00
  0.00000000E+00  0.00000000E+00  0.00000000E+00
  0.00000000E+00  0.00000000E+00  0.00000000E+00
  0.00000000E+00  0.00000000E+00  0.00000000E+00
  0.00000000E+00  0.00000000E+00  0.00000000E+00
  0.00000000E+00  0.00000000E+00  0.00000000E+00
  0.00000000E+00  0.00000000E+00  0.00000000E+00
  0.00000000E+00  0.00000000E+00  0.00000000E+00
  0.00000000E+00  0.00000000E+00  0.00000000E+00
  0.00000000E+00  0.00000000E+00  0.00000000E+00
  0.00000000E+00  0.00000000E+00  0.00000000E+00
  0.00000000E+00  0.00000000E+00  0.00000000E+00
  0.00000000E+00  0.00000000E+00  0.00000000E+00
  0.00000000E+00  0.00000000E+00  0.00000000E+00
