System                                  
   1.0000000000000000     
    11.4009387477082118   -0.1270461853059910   -0.2333408100202317
    -5.7172201767325017    9.9979219821615430    0.0770862630575056
     0.0362140596339119    0.0921245990614989    9.2636120848112711
  Li              Mn              Co              Ni              O             
    15    12     8    12    64
Direct
     0.1677084375143472    0.3375376292617591    0.8966748751499201
     0.1746842247211771    0.8396894134053733    0.8956692273242718
     0.6719044806345685    0.3384171025448752    0.8957084421314040
     0.6696424505972833    0.8352308525406057    0.8936219569167708
     0.4994198470213166    0.9992595223521245    0.9942956965775829
     0.4983338008430877    0.4971557359834163    0.9937004314834290
     0.9993222923234076    0.0013529461000519    0.9937699962387756
     0.4970313755982179    0.5003993161641977    0.4960742057018442
     0.4902593863182592    0.9928217837694366    0.4964815067663354
     0.9945073647766361    0.4953214339529747    0.4946124594353659
     0.9886917425105570    0.9928075685257283    0.4946928484011269
     0.3299946507020862    0.1666767474630586    0.3958013434072872
     0.3277788831563085    0.6635876154264511    0.4019319173273682
     0.8302347247235277    0.1633240843884021    0.4004428531490912
     0.8320464678496816    0.6611492115714777    0.3991338361395808
     0.0846355656550806    0.4187550007229744    0.2081393612536888
     0.0893907370676637    0.9186171015760654    0.2138589353323527
     0.5854816174833825    0.4127957245014244    0.2117314793598468
     0.5834230095549562    0.9118097784118584    0.2129601846282561
     0.0869613994280260    0.1734719671020576    0.2108752117767259
     0.0862850748959089    0.6709482906759496    0.2077678389340524
     0.5845102346872268    0.1677146576787117    0.2142074656211167
     0.5864719672819634    0.6692083710900838    0.2134875671104721
     0.1700199849712988    0.0867092595370115    0.7103355481464881
     0.1633243916303419    0.5795629815622574    0.7234819534536155
     0.6680350048925219    0.0825475831414545    0.7138713486974617
     0.6728679113180219    0.5855427867152736    0.7121742064126179
     0.1632765194305165    0.3317448658839711    0.4826759389304564
     0.1657517129778307    0.8275710777652311    0.4832400243385830
     0.6651535362743232    0.3264140811765940    0.4829650331207206
     0.6677616052878235    0.8294475032438741    0.4847385249544916
     0.3421273895453248    0.1741009053868417    0.9787271375357356
     0.3357163653993279    0.6678203364641226    0.9826240034606665
     0.8392220107338776    0.1731951156279778    0.9826931021924795
     0.8469866377528632    0.6730637099506325    0.9838567607414015
     0.4166084881299910    0.0873083699853838    0.7126420838132703
     0.4119953600347165    0.5821405771295537    0.7138427539480137
     0.9167014382474757    0.0888793555159173    0.7127893348346486
     0.9168062371585463    0.5824047020944885    0.7180932490279032
     0.3315959131162690    0.4196708454826797    0.2135780860427561
     0.3321321843516526    0.9157853563869575    0.2107507589357787
     0.8316084387961743    0.4128358604028526    0.2065504682360042
     0.8324570524398242    0.9180646158889578    0.2116572105897717
     0.4152849181038402    0.3320511910272337    0.7122255824994040
     0.4115610862036981    0.8260319972972723    0.7143298634802447
     0.9119322899769347    0.3303863003584199    0.7186635492976452
     0.9186250860072241    0.8306681308250031    0.7132473060336778
     0.1697586715563719    0.0870345683263143    0.1006003900969917
     0.1719338771612774    0.5895615140527676    0.1062338033497609
     0.6671503577314774    0.0823604165222482    0.1045773532574868
     0.6682808437605078    0.5848029869177382    0.1017686638538713
     0.4244004298792942    0.3340822599051881    0.0950204170967161
     0.4222013198147797    0.8347815038045718    0.0950283736505354
     0.9206097206715472    0.3383084632698040    0.0919811314061712
     0.9261280527141140    0.8357348163801552    0.0930308484472561
     0.3347306220823912    0.1741048264069391    0.6071254318225078
     0.3287893318194645    0.6642719971088995    0.6137344213781151
     0.8340702564553801    0.1720959230671394    0.6114192403986002
     0.8375847219459979    0.6654541259339992    0.6104721732872208
     0.2639716215677381    0.0261414225419532    0.8392176194197125
     0.2524883414532824    0.5202516130771899    0.8528550670471083
     0.7631623751280912    0.0242060809789790    0.8425894308516091
     0.7611886484000334    0.5235194026134062    0.8459811875828912
     0.2623041708719923    0.2441617897425840    0.8355229794797107
     0.2609730255370849    0.7407166985883872    0.8418130610623230
     0.7567426636836305    0.2384779643081727    0.8389641528299244
     0.7649839892629122    0.7404550453913983    0.8402223343048086
     0.3340673461757406    0.4156578542063672    0.5951445140260940
     0.3274724836602874    0.9075812033220617    0.5963485472262194
     0.8319479607613864    0.4091858167915865    0.5972729534146216
     0.8225669856557466    0.9106804836030966    0.5939090238663236
     0.2401635088887335    0.2652309533832823    0.3434278288913993
     0.2322780982142655    0.7532026199946757    0.3466367043111088
     0.7311990603376981    0.2490462132590371    0.3496429602490058
     0.7356805344012984    0.7542779100213718    0.3491889096605615
     0.0174451896594394    0.2593616914679769    0.3370592248989155
     0.0187036474195674    0.7595566738549122    0.3369898713931544
     0.5178484209215344    0.2568330880042551    0.3389011343906715
     0.5171432991141333    0.7543531718008382    0.3406751585823818
     0.0797657384153341    0.1613571893506575    0.5940345406120684
     0.0803403553556304    0.6584758974869653    0.6012829790092120
     0.5788026115037420    0.1587727819734729    0.5974958992130475
     0.5900250081581101    0.6674039041309974    0.5954786563907625
     0.9997713751388378    0.0008830440596365    0.8041343305382523
     0.9929984378194988    0.4932052664217990    0.8193453203364327
     0.4975379110441321    0.9932867683084045    0.8057292429820416
     0.4991571766235754    0.4981128711030803    0.8042554326751205
     0.0116046386948930    0.0065533887725771    0.3079708011861191
     0.9989817999985980    0.5007910098473404    0.3034026933188023
     0.4975815379528013    0.9960818147979402    0.3074171847753512
     0.5042154187247331    0.4988018651943734    0.3078096921473003
     0.1667305511603978    0.3378307336685005    0.1049980240221976
     0.1711183260278349    0.8375814021588606    0.1055574655778730
     0.6657655011010475    0.3304369044007386    0.1050115699175100
     0.6585075461615143    0.8289578304874846    0.1033147797548540
     0.4842286974327668    0.2522790035243459    0.8407108844658345
     0.4786538845974654    0.7390832277008748    0.8448615338182606
     0.9810407025534367    0.2497282826032275    0.8458411545608413
     0.9863666478679856    0.7442738688700643    0.8517430208265228
     0.0768711210996594    0.4159781609524810    0.6082350620664599
     0.0819842383737933    0.9189682333724382    0.5999049366818788
     0.5815217615038542    0.4184640734353096    0.6007525005890609
     0.5789760518231193    0.9146785236906754    0.6007114402461470
     0.2302857024619244    0.4805618752284702    0.3500661217051647
     0.2386715729727023    0.9781805010371913    0.3489521649954642
     0.7395073152163633    0.4740748491395640    0.3441081815205167
     0.7312434159646454    0.9763896818759248    0.3511479040541532
     0.4259309168221632    0.0897752716946159    0.0905660475153597
     0.4219646728360651    0.5837515401464607    0.0962472827309186
     0.9271870794984058    0.0939120928812607    0.0914047552448000
     0.9192630100769624    0.5964482614373359    0.0953999419461167

  0.00000000E+00  0.00000000E+00  0.00000000E+00
  0.00000000E+00  0.00000000E+00  0.00000000E+00
  0.00000000E+00  0.00000000E+00  0.00000000E+00
  0.00000000E+00  0.00000000E+00  0.00000000E+00
  0.00000000E+00  0.00000000E+00  0.00000000E+00
  0.00000000E+00  0.00000000E+00  0.00000000E+00
  0.00000000E+00  0.00000000E+00  0.00000000E+00
  0.00000000E+00  0.00000000E+00  0.00000000E+00
  0.00000000E+00  0.00000000E+00  0.00000000E+00
  0.00000000E+00  0.00000000E+00  0.00000000E+00
  0.00000000E+00  0.00000000E+00  0.00000000E+00
  0.00000000E+00  0.00000000E+00  0.00000000E+00
  0.00000000E+00  0.00000000E+00  0.00000000E+00
  0.00000000E+00  0.00000000E+00  0.00000000E+00
  0.00000000E+00  0.00000000E+00  0.00000000E+00
  0.00000000E+00  0.00000000E+00  0.00000000E+00
  0.00000000E+00  0.00000000E+00  0.00000000E+00
  0.00000000E+00  0.00000000E+00  0.00000000E+00
  0.00000000E+00  0.00000000E+00  0.00000000E+00
  0.00000000E+00  0.00000000E+00  0.00000000E+00
  0.00000000E+00  0.00000000E+00  0.00000000E+00
  0.00000000E+00  0.00000000E+00  0.00000000E+00
  0.00000000E+00  0.00000000E+00  0.00000000E+00
  0.00000000E+00  0.00000000E+00  0.00000000E+00
  0.00000000E+00  0.00000000E+00  0.00000000E+00
  0.00000000E+00  0.00000000E+00  0.00000000E+00
  0.00000000E+00  0.00000000E+00  0.00000000E+00
  0.00000000E+00  0.00000000E+00  0.00000000E+00
  0.00000000E+00  0.00000000E+00  0.00000000E+00
  0.00000000E+00  0.00000000E+00  0.00000000E+00
  0.00000000E+00  0.00000000E+00  0.00000000E+00
  0.00000000E+00  0.00000000E+00  0.00000000E+00
  0.00000000E+00  0.00000000E+00  0.00000000E+00
  0.00000000E+00  0.00000000E+00  0.00000000E+00
  0.00000000E+00  0.00000000E+00  0.00000000E+00
  0.00000000E+00  0.00000000E+00  0.00000000E+00
  0.00000000E+00  0.00000000E+00  0.00000000E+00
  0.00000000E+00  0.00000000E+00  0.00000000E+00
  0.00000000E+00  0.00000000E+00  0.00000000E+00
  0.00000000E+00  0.00000000E+00  0.00000000E+00
  0.00000000E+00  0.00000000E+00  0.00000000E+00
  0.00000000E+00  0.00000000E+00  0.00000000E+00
  0.00000000E+00  0.00000000E+00  0.00000000E+00
  0.00000000E+00  0.00000000E+00  0.00000000E+00
  0.00000000E+00  0.00000000E+00  0.00000000E+00
  0.00000000E+00  0.00000000E+00  0.00000000E+00
  0.00000000E+00  0.00000000E+00  0.00000000E+00
  0.00000000E+00  0.00000000E+00  0.00000000E+00
  0.00000000E+00  0.00000000E+00  0.00000000E+00
  0.00000000E+00  0.00000000E+00  0.00000000E+00
  0.00000000E+00  0.00000000E+00  0.00000000E+00
  0.00000000E+00  0.00000000E+00  0.00000000E+00
  0.00000000E+00  0.00000000E+00  0.00000000E+00
  0.00000000E+00  0.00000000E+00  0.00000000E+00
  0.00000000E+00  0.00000000E+00  0.00000000E+00
  0.00000000E+00  0.00000000E+00  0.00000000E+00
  0.00000000E+00  0.00000000E+00  0.00000000E+00
  0.00000000E+00  0.00000000E+00  0.00000000E+00
  0.00000000E+00  0.00000000E+00  0.00000000E+00
  0.00000000E+00  0.00000000E+00  0.00000000E+00
  0.00000000E+00  0.00000000E+00  0.00000000E+00
  0.00000000E+00  0.00000000E+00  0.00000000E+00
  0.00000000E+00  0.00000000E+00  0.00000000E+00
  0.00000000E+00  0.00000000E+00  0.00000000E+00
  0.00000000E+00  0.00000000E+00  0.00000000E+00
  0.00000000E+00  0.00000000E+00  0.00000000E+00
  0.00000000E+00  0.00000000E+00  0.00000000E+00
  0.00000000E+00  0.00000000E+00  0.00000000E+00
  0.00000000E+00  0.00000000E+00  0.00000000E+00
  0.00000000E+00  0.00000000E+00  0.00000000E+00
  0.00000000E+00  0.00000000E+00  0.00000000E+00
  0.00000000E+00  0.00000000E+00  0.00000000E+00
  0.00000000E+00  0.00000000E+00  0.00000000E+00
  0.00000000E+00  0.00000000E+00  0.00000000E+00
  0.00000000E+00  0.00000000E+00  0.00000000E+00
  0.00000000E+00  0.00000000E+00  0.00000000E+00
  0.00000000E+00  0.00000000E+00  0.00000000E+00
  0.00000000E+00  0.00000000E+00  0.00000000E+00
  0.00000000E+00  0.00000000E+00  0.00000000E+00
  0.00000000E+00  0.00000000E+00  0.00000000E+00
  0.00000000E+00  0.00000000E+00  0.00000000E+00
  0.00000000E+00  0.00000000E+00  0.00000000E+00
  0.00000000E+00  0.00000000E+00  0.00000000E+00
  0.00000000E+00  0.00000000E+00  0.00000000E+00
  0.00000000E+00  0.00000000E+00  0.00000000E+00
  0.00000000E+00  0.00000000E+00  0.00000000E+00
  0.00000000E+00  0.00000000E+00  0.00000000E+00
  0.00000000E+00  0.00000000E+00  0.00000000E+00
  0.00000000E+00  0.00000000E+00  0.00000000E+00
  0.00000000E+00  0.00000000E+00  0.00000000E+00
  0.00000000E+00  0.00000000E+00  0.00000000E+00
  0.00000000E+00  0.00000000E+00  0.00000000E+00
  0.00000000E+00  0.00000000E+00  0.00000000E+00
  0.00000000E+00  0.00000000E+00  0.00000000E+00
  0.00000000E+00  0.00000000E+00  0.00000000E+00
  0.00000000E+00  0.00000000E+00  0.00000000E+00
  0.00000000E+00  0.00000000E+00  0.00000000E+00
  0.00000000E+00  0.00000000E+00  0.00000000E+00
  0.00000000E+00  0.00000000E+00  0.00000000E+00
  0.00000000E+00  0.00000000E+00  0.00000000E+00
  0.00000000E+00  0.00000000E+00  0.00000000E+00
  0.00000000E+00  0.00000000E+00  0.00000000E+00
  0.00000000E+00  0.00000000E+00  0.00000000E+00
  0.00000000E+00  0.00000000E+00  0.00000000E+00
  0.00000000E+00  0.00000000E+00  0.00000000E+00
  0.00000000E+00  0.00000000E+00  0.00000000E+00
  0.00000000E+00  0.00000000E+00  0.00000000E+00
  0.00000000E+00  0.00000000E+00  0.00000000E+00
  0.00000000E+00  0.00000000E+00  0.00000000E+00
  0.00000000E+00  0.00000000E+00  0.00000000E+00
  0.00000000E+00  0.00000000E+00  0.00000000E+00
