System                                  
   1.0000000000000000     
    10.2852317212148616   -0.0002002927936414   -5.4002187051931321
    -2.8351896634306994    9.8867470578824275   -5.4002254834420542
     0.0099513128610022    0.0132069081834311   12.5149077806612770
  Mg              Mn              O             
     6    32    64
Direct
     0.1887604211103724    0.3182074461361080    0.3812480106086296
     0.1939786514205194    0.8105373412907092    0.3836017547824193
     0.1898915858975999    0.8171192698651509    0.8872653621604022
     0.6828667420410499    0.3050736848123479    0.3604485305876881
     0.6985060744033286    0.8206803074554656    0.8826836780054576
     0.8030611048047734    0.6860576520527373    0.1247453674608354
     0.9980372114630571    0.0030659650321187    0.2527113332496214
     1.0058182469406054    1.0049683096070665    0.7573632003217352
     0.9889473758470440    0.4892938918021851    0.2377071102433479
     0.0234343444257031    0.5166868017183861    0.7865449712472445
     0.5055596227109197   -0.0000928287974326    0.2584815283104472
     0.5096890972149773    0.0069696959293118    0.7609983116866456
     0.4830857801769596    0.4899143138056954    0.2266854035165421
     0.5023438426847443    0.5021257194674631    0.7505823491441868
     0.9944521302135734    0.2461516671794286    0.9917086368060613
     0.9934873828681693    0.2479419421314079    0.4941256497098992
     0.0155551703925128    0.7585337701678108    0.0256799156491231
     0.9958516742436170    0.7464624056125603    0.4982517377090439
     0.4983260239284115    0.2476305787095739    0.9993996110726622
     0.5032982717872241    0.2517654296853030    0.4999554346708761
     0.4964336562527649    0.7481351979985793   -0.0029173505745881
     0.4950591889527069    0.7391988908351262    0.4752022164585331
     0.2639006454424037    0.0106641793076008    0.2729160292719182
     0.2577598304418287    0.0077181483520211    0.7660401241126107
     0.2468393376560114    0.4907120558731312    0.2351979367888355
     0.2553151401701720    0.5056610194232799    0.7618220678472076
     0.7469394117117047    0.9941538039887506    0.2378795127560055
     0.7523743554161456    1.0011109305653765    0.7480144463165064
     0.7414006210038918    0.4905439600740833    0.2333598749801722
     0.7622882845946050    0.5108426509489502    0.7709719619617577
     1.0003222145137953    1.0016185640663586    0.9986582056523891
     1.0011015633223270    0.0052470807570011    0.5094801638953598
     0.0094009828989192    0.5110959539526067    0.0189314545603195
     0.9881375831295907    0.4905210868042650    0.4812217842831694
     0.4981608357632629    1.0009516843144519    0.9969370543426672
     0.5081580091148113    0.0059640262164828    0.5097131392545653
     0.4957206287037667    0.4971912170246148   -0.0013820343012543
     0.4868482183189127    0.4830317480120056    0.4661697708777516
     0.3647765233921087    0.3825665269384429    0.2316224459446981
     0.3927717807057464    0.4086494494005525    0.7868623585246785
     0.3961099147420488    0.9095481997856805    0.2932805635082202
     0.3999282324915036    0.9090638297388901    0.7934505671692383
     0.8679480672430701    0.3864513790167416    0.2396304443084646
     0.9076246152995091    0.4217343538881219    0.8147460168809846
     0.8709663302978975    0.8850844044740498    0.2426574463618199
     0.8813053805793452    0.9002390078297752    0.7597207500119462
     0.3754718099186932    0.1146720488433805    0.4769869132448638
     0.3731306196456068    0.1095055882644768    0.9739833934733457
     0.3630175303889535    0.5968336086987609    0.4416542920453513
     0.3722310381376636    0.6124999762929886    0.9716001747717129
     0.8560477475306960    0.0970146979381678    0.4438635418717031
     0.8702354505410783    0.1080318525528227    0.9621403396222251
     0.8572979268264301    0.5964261110073524    0.4432488824761099
     0.8986754850842127    0.6373582112356925    0.0211460563714915
     0.0854649056976162    0.1015773398007669    0.4576548505825156
     0.0948289311297572    0.1112009808069104    0.9693057706932168
     0.0823264214844513    0.5989466431173148    0.4476867165488609
     0.1187249901110324    0.6376395427332274    0.0243983343556189
     0.6066724360628508    0.1270491469102946    0.4997136126828747
     0.6042946906271353    0.1247272470250188    1.0011196208699653
     0.5829443762759393    0.5925549673115797    0.4349266443246639
     0.6069691131010866    0.6247737048633217   -0.0000103655429879
     0.1273777470392171    0.1131504950846817    0.2575587150659250
     0.1284170658515914    0.1031766096837761    0.7461503148024757
     0.1142702026988359    0.6038599777992676    0.2341329565990838
     0.1287205891548259    0.6167125002260049    0.7575112155238116
     0.6109995436665943    0.0992954149259581    0.2215226433997677
     0.6074402159616049    0.0951230387492609    0.7162425425769061
     0.6016814405981079    0.5886428515000507    0.2069764234438555
     0.6358780910521499    0.6192047590643791    0.7624877996704365
     0.1083565010253003    0.3688391474894193    0.2249630702616218
     0.1208927462254194    0.3903544716999922    0.7382162996425531
     0.1215562426443666    0.8822696315267798    0.2449731971202425
     0.1289184408466998    0.8900774884405850    0.7570312705971772
     0.6073626208493457    0.3678584408049690    0.2175140515392621
     0.6059078987508643    0.3738779459359168    0.7056939095866027
     0.6053271489534194    0.8690246727636279    0.2076756736075722
     0.6321043012564939    0.8925146102162936    0.7540614263611692
     0.1204162868073029    0.3902180592382788    0.0282021993416618
     0.1278148387908737    0.3907833488971265    0.5252999257918418
     0.1357506691533212    0.8935055387967235    0.0396863406500846
     0.1318198335325509    0.8847700108245711    0.5288964592194241
     0.6185890724509626    0.3845504236438126    0.0218840614077789
     0.6084352583741117    0.3689683555750620    0.4881518594661145
     0.6235916434922402    0.8844120565748023    0.0166634555521640
     0.6312148538653156    0.8958467196902516    0.5365069245934764
     0.3930529188195938    0.1268903958710462    0.2878339017962731
     0.3949138778245715    0.1315758501733865    0.7918664284717000
     0.3652769616356726    0.5988090739337267    0.2337231016247922
     0.3976198858668363    0.6329985999915434    0.7909154420076367
     0.8749715570993004    0.1049270701859155    0.2464373147435638
     0.8943471224705297    0.1320111692453020    0.7821485103705276
     0.8681084374443917    0.6043909741805413    0.2401444238531562
     0.9130570013576127    0.6498918857439410    0.8224789120849664
     0.3973174420951337    0.3825402457627597    0.0171460498284691
     0.3897021176748804    0.3789791970721956    0.4987372475228071
     0.3910303476829883    0.8760564920245116    0.0021003228270197
     0.3937888385576609    0.8732362086534436    0.5020366858078272
     0.9044775457364247    0.3911157155263074    0.0311209803380148
     0.8828899934299329    0.3713832714870466    0.4904841796833146
     0.9052574657542307    0.8928504230581548    0.0340772090645542
     0.9148960461629537    0.8981201273471229    0.5468889767693090

  0.00000000E+00  0.00000000E+00  0.00000000E+00
  0.00000000E+00  0.00000000E+00  0.00000000E+00
  0.00000000E+00  0.00000000E+00  0.00000000E+00
  0.00000000E+00  0.00000000E+00  0.00000000E+00
  0.00000000E+00  0.00000000E+00  0.00000000E+00
  0.00000000E+00  0.00000000E+00  0.00000000E+00
  0.00000000E+00  0.00000000E+00  0.00000000E+00
  0.00000000E+00  0.00000000E+00  0.00000000E+00
  0.00000000E+00  0.00000000E+00  0.00000000E+00
  0.00000000E+00  0.00000000E+00  0.00000000E+00
  0.00000000E+00  0.00000000E+00  0.00000000E+00
  0.00000000E+00  0.00000000E+00  0.00000000E+00
  0.00000000E+00  0.00000000E+00  0.00000000E+00
  0.00000000E+00  0.00000000E+00  0.00000000E+00
  0.00000000E+00  0.00000000E+00  0.00000000E+00
  0.00000000E+00  0.00000000E+00  0.00000000E+00
  0.00000000E+00  0.00000000E+00  0.00000000E+00
  0.00000000E+00  0.00000000E+00  0.00000000E+00
  0.00000000E+00  0.00000000E+00  0.00000000E+00
  0.00000000E+00  0.00000000E+00  0.00000000E+00
  0.00000000E+00  0.00000000E+00  0.00000000E+00
  0.00000000E+00  0.00000000E+00  0.00000000E+00
  0.00000000E+00  0.00000000E+00  0.00000000E+00
  0.00000000E+00  0.00000000E+00  0.00000000E+00
  0.00000000E+00  0.00000000E+00  0.00000000E+00
  0.00000000E+00  0.00000000E+00  0.00000000E+00
  0.00000000E+00  0.00000000E+00  0.00000000E+00
  0.00000000E+00  0.00000000E+00  0.00000000E+00
  0.00000000E+00  0.00000000E+00  0.00000000E+00
  0.00000000E+00  0.00000000E+00  0.00000000E+00
  0.00000000E+00  0.00000000E+00  0.00000000E+00
  0.00000000E+00  0.00000000E+00  0.00000000E+00
  0.00000000E+00  0.00000000E+00  0.00000000E+00
  0.00000000E+00  0.00000000E+00  0.00000000E+00
  0.00000000E+00  0.00000000E+00  0.00000000E+00
  0.00000000E+00  0.00000000E+00  0.00000000E+00
  0.00000000E+00  0.00000000E+00  0.00000000E+00
  0.00000000E+00  0.00000000E+00  0.00000000E+00
  0.00000000E+00  0.00000000E+00  0.00000000E+00
  0.00000000E+00  0.00000000E+00  0.00000000E+00
  0.00000000E+00  0.00000000E+00  0.00000000E+00
  0.00000000E+00  0.00000000E+00  0.00000000E+00
  0.00000000E+00  0.00000000E+00  0.00000000E+00
  0.00000000E+00  0.00000000E+00  0.00000000E+00
  0.00000000E+00  0.00000000E+00  0.00000000E+00
  0.00000000E+00  0.00000000E+00  0.00000000E+00
  0.00000000E+00  0.00000000E+00  0.00000000E+00
  0.00000000E+00  0.00000000E+00  0.00000000E+00
  0.00000000E+00  0.00000000E+00  0.00000000E+00
  0.00000000E+00  0.00000000E+00  0.00000000E+00
  0.00000000E+00  0.00000000E+00  0.00000000E+00
  0.00000000E+00  0.00000000E+00  0.00000000E+00
  0.00000000E+00  0.00000000E+00  0.00000000E+00
  0.00000000E+00  0.00000000E+00  0.00000000E+00
  0.00000000E+00  0.00000000E+00  0.00000000E+00
  0.00000000E+00  0.00000000E+00  0.00000000E+00
  0.00000000E+00  0.00000000E+00  0.00000000E+00
  0.00000000E+00  0.00000000E+00  0.00000000E+00
  0.00000000E+00  0.00000000E+00  0.00000000E+00
  0.00000000E+00  0.00000000E+00  0.00000000E+00
  0.00000000E+00  0.00000000E+00  0.00000000E+00
  0.00000000E+00  0.00000000E+00  0.00000000E+00
  0.00000000E+00  0.00000000E+00  0.00000000E+00
  0.00000000E+00  0.00000000E+00  0.00000000E+00
  0.00000000E+00  0.00000000E+00  0.00000000E+00
  0.00000000E+00  0.00000000E+00  0.00000000E+00
  0.00000000E+00  0.00000000E+00  0.00000000E+00
  0.00000000E+00  0.00000000E+00  0.00000000E+00
  0.00000000E+00  0.00000000E+00  0.00000000E+00
  0.00000000E+00  0.00000000E+00  0.00000000E+00
  0.00000000E+00  0.00000000E+00  0.00000000E+00
  0.00000000E+00  0.00000000E+00  0.00000000E+00
  0.00000000E+00  0.00000000E+00  0.00000000E+00
  0.00000000E+00  0.00000000E+00  0.00000000E+00
  0.00000000E+00  0.00000000E+00  0.00000000E+00
  0.00000000E+00  0.00000000E+00  0.00000000E+00
  0.00000000E+00  0.00000000E+00  0.00000000E+00
  0.00000000E+00  0.00000000E+00  0.00000000E+00
  0.00000000E+00  0.00000000E+00  0.00000000E+00
  0.00000000E+00  0.00000000E+00  0.00000000E+00
  0.00000000E+00  0.00000000E+00  0.00000000E+00
  0.00000000E+00  0.00000000E+00  0.00000000E+00
  0.00000000E+00  0.00000000E+00  0.00000000E+00
  0.00000000E+00  0.00000000E+00  0.00000000E+00
  0.00000000E+00  0.00000000E+00  0.00000000E+00
  0.00000000E+00  0.00000000E+00  0.00000000E+00
  0.00000000E+00  0.00000000E+00  0.00000000E+00
  0.00000000E+00  0.00000000E+00  0.00000000E+00
  0.00000000E+00  0.00000000E+00  0.00000000E+00
  0.00000000E+00  0.00000000E+00  0.00000000E+00
  0.00000000E+00  0.00000000E+00  0.00000000E+00
  0.00000000E+00  0.00000000E+00  0.00000000E+00
  0.00000000E+00  0.00000000E+00  0.00000000E+00
  0.00000000E+00  0.00000000E+00  0.00000000E+00
  0.00000000E+00  0.00000000E+00  0.00000000E+00
  0.00000000E+00  0.00000000E+00  0.00000000E+00
  0.00000000E+00  0.00000000E+00  0.00000000E+00
  0.00000000E+00  0.00000000E+00  0.00000000E+00
  0.00000000E+00  0.00000000E+00  0.00000000E+00
  0.00000000E+00  0.00000000E+00  0.00000000E+00
  0.00000000E+00  0.00000000E+00  0.00000000E+00
  0.00000000E+00  0.00000000E+00  0.00000000E+00
