System
1.0
10.285231721214862 -0.0002002927936414 -5.400218705193132
-2.8351896634306994 9.886747057882427 -5.400225483442054
0.0099513128610022 0.0132069081834311 12.514907780661277
Mg Mn O 
6 32 64 
direct
0.1905278419939146 0.3205692931910425 0.3864675750755671 Mg
0.1929600333419507 0.8140520323463938 0.3828815319918265 Mg
0.191028391965046 0.8197525718028545 0.8848615771489523 Mg
0.687317437125478 0.3088916558129717 0.3679436147443599 Mg
0.6954011011260424 0.8212192614680625 0.8801943118034357 Mg
0.8056681493745487 0.6858203799727686 0.1277471380419217 Mg
0.9975578285608325 0.0026012832502859 0.2495550355989354 Mn
0.9960961865786454 -0.0011219598250131 0.7472690088416836 Mn
-0.0044610788156054 0.4943115771821327 0.2465296331248922 Mn
0.0212228193917627 0.519004455414578 0.7881545947730889 Mn
0.5112100138294882 0.0037885498331997 0.2652486369072408 Mn
0.5012381877929856 1.0012822283459848 0.7488986267103791 Mn
0.4860578020931639 0.4907675953441687 0.2322866188382766 Mn
0.5018253545275383 0.5010964361682865 0.7511158774611459 Mn
0.9843728990624792 0.2434959183754346 0.9839109630746244 Mn
0.9918817984699753 0.2438510366005507 0.4877316049235328 Mn
0.0151917237700298 0.7599443302247835 0.0243004240990275 Mn
0.9978926276305314 0.7477547860043467 0.500655416500576 Mn
0.4997273544171611 0.2433605779943961 0.9963795066569127 Mn
0.5030139508571863 0.2519171146480107 0.5011379597918879 Mn
0.5001352048983749 0.7513259334382325 0.0025105518340244 Mn
0.4960490035312359 0.7413993559231229 0.4793039915488946 Mn
0.2636071840404481 0.0121335554943506 0.2703879136107175 Mn
0.2573209063278343 0.0069808365938715 0.7604730370261559 Mn
0.2494625325734256 0.4937195886802854 0.2425135092398358 Mn
0.2608546380874006 0.5103322147697222 0.7710288111449555 Mn
0.7484433458556098 0.994702257280304 0.24081635817838 Mn
0.7474553699897404 0.9928114642306435 0.7365248807494007 Mn
0.7446397860367507 0.4905703975429209 0.2370921228486687 Mn
0.7598629690280502 0.5086717304539753 0.7690153223698422 Mn
0.9949152164558098 0.9987634490833329 0.9900323610960948 Mn
-0.0020035662776278 0.0001249423453091 0.5009471989937543 Mn
0.0099214134723406 0.5145714442283573 0.0224995086536493 Mn
0.9920834975609059 0.4933965841679016 0.4877186154113441 Mn
0.4972674791009583 0.9992272373838461 0.995997806076631 Mn
0.5065615135345822 0.0042707666198814 0.5061808607818319 Mn
0.5010004539272369 0.4998280395085632 0.0035039532112338 Mn
0.489145251618631 0.4853628789617083 0.4717359704474755 Mn
0.3662787343303969 0.3839008995045269 0.2359765914578968 O
0.3937298490680869 0.4098235123552762 0.7917938548866872 O
0.3950461123510184 0.9104104496800285 0.2902705872530637 O
0.3803779712434743 0.9026505003247817 0.7617350270689915 O
0.8733279068631085 0.3888238181210389 0.2455156470837169 O
0.9087823344847613 0.4216883786239811 0.8167777546471795 O
0.8734216606460969 0.8846861085820823 0.243240954631411 O
0.8774399354014265 0.890792871592774 0.7502088905451824 O
0.374134361944747 0.1143052142431931 0.4750256991712826 O
0.3677620229676505 0.111311077729106 0.9663744656687159 O
0.3653408109740232 0.5996126157924176 0.4457082535603588 O
0.3758089696595371 0.6147027042324803 0.977319628697558 O
0.85991104017077 0.0970064516238088 0.4468666725195363 O
0.8607622219292389 0.099305661366678 0.9497013129545855 O
0.859081051405296 0.5953828048892923 0.4465923448872599 O
0.8999561240154803 0.6380923981897773 0.0222845765431498 O
0.0862708575824053 0.1006724936178148 0.4542636062302172 O
0.0865149273111307 0.1066845779321196 0.9576172729750413 O
0.0864184457297475 0.6028513398565406 0.4554387408112889 O
0.1184336433577562 0.6381412768201087 0.0234901472168812 O
0.60665195832982 0.1279792500445395 0.5004371171363503 O
0.6023769775717488 0.1226232931807898 0.9952672042432334 O
0.5845539439111714 0.5919265261942895 0.4370802010473605 O
0.6091329763446064 0.6242580345134567 0.0029334068033765 O
0.1268107953281901 0.1143796270423816 0.2562640320555761 O
0.1246363405885267 0.1135222382787758 0.7485839223989821 O
0.1173190441550407 0.6075418914382299 0.236506256135783 O
0.1305513343490078 0.6165130795254782 0.7611417294500453 O
0.6240959925778318 0.1053387778803725 0.2429739303301582 O
0.6062783123851715 0.0908814132325616 0.7103916412861773 O
0.6030500071760406 0.5880597136884625 0.2096035584900381 O
0.6342486479528899 0.6178838609605097 0.7618770221090209 O
0.1218938000691116 0.3867626207856144 0.2488743489115403 O
0.1321987675145538 0.3954080617014972 0.7629998979019549 O
0.1208775985464043 0.8821913293488901 0.2409346305755213 O
0.1286127297106258 0.8887779815224183 0.7512281086484159 O
0.608856874581241 0.3670877754310149 0.2195979474536862 O
0.6057354773773631 0.373554775923864 0.7085528507161477 O
0.6071684149492549 0.8680610142320674 0.2096376450361258 O
0.6233089377352692 0.8824317675312737 0.7420286285115043 O
0.1223736158000581 0.3884918838801594 0.0245893771922037 O
0.1301661595166919 0.3905748577510408 0.5326151032413585 O
0.1332925556767831 0.8929113895640134 0.0353173530658197 O
0.1292277159027529 0.8884909868866121 0.5252302948820873 O
0.620868483130898 0.3867750893837558 0.0249986367423456 O
0.6115771758200726 0.3728418093412889 0.4951919282815437 O
0.62731396515702 0.8817133556874891 0.0199907234760319 O
0.6253675450815384 0.8898485948066119 0.526095330169938 O
0.394604078735917 0.1305086009780696 0.2898317704946722 O
0.3939373440882913 0.1362254072801379 0.7903650709822172 O
0.3673059586203891 0.598247842028997 0.2359528980732203 O
0.3964283266854795 0.6318407534735369 0.7926567563675947 O
0.8750514723478787 0.1055103180533408 0.2471107233248675 O
0.8750142638074456 0.1056455225683281 0.7461727113552461 O
0.8710254646999538 0.6072652882336301 0.246021354364213 O
0.9101012784980549 0.6472579141461706 0.8192100520915794 O
0.392852782549885 0.3820274866028068 0.015074852476761 O
0.3914608706219887 0.3809327532442219 0.5034500262592941 O
0.3922075974354677 0.8754388636344786 0.0037050121207382 O
0.3916484136963048 0.874162967968847 0.4986991411066169 O
0.9088003265823645 0.3986517177662361 0.0396978154665567 O
0.8883431871796512 0.3740691121073095 0.4995335230197866 O
0.9034914420682052 0.891419006090479 0.030816459701682 O
0.912355832803451 0.8929861401875039 0.5389405975047786 O
