System                                  
   1.0000000000000000     
     5.6248913968435250    0.0233862392577008    9.3438059357317726
     2.6131818555432784    4.9810870482163185    9.3437927792936346
     0.0385017942130299    0.0233982432527669   10.9062502531280714
  Na              Co              O             
     8     8    16
Direct
     0.2500006913366508    0.2500004830642537    0.2499988072762403
     0.2500005557216278    0.2500003688208023    0.7499989745083977
     0.2500005497267582    0.7500005404293058    0.2499986371740707
     0.2500005964056896    0.7500006313170344    0.7499990386465867
     0.7500006277452809    0.2500003550127181    0.2499986481075940
     0.7500006614109388    0.2500004539740672    0.7499990202191931
     0.7500007495734753    0.7500005960126717    0.2499986949047851
     0.7500005885832646    0.7500004360194137    0.7499989000990112
     0.0000005168187773    0.0000004324123639   -0.0000009946443989
     0.0000005801696535    0.0000003586636888    0.4999989214972262
     0.0000004180054563    0.5000003890731541   -0.0000009888799899
     0.0000005079678648    0.5000004191276833    0.4999990314013902
     0.5000005067976775    0.0000002494392609   -0.0000009248306871
     0.5000005499420054    0.0000003974898707    0.4999989993230555
     0.5000005867658975    0.5000003760707780   -0.0000010091174377
     0.5000005413761639    0.5000004798983492    0.4999988216763459
     0.1345649139990730    0.1345639376098818    0.1345658792791194
     0.1345652742808782    0.1345645360116970    0.6345674651553657
     0.1345615295645631    0.6345661364078723    0.1345683591406401
     0.1345650190199628    0.6345631867027822    0.6345664343240272
     0.6345666790791523    0.1345606554791056    0.1345685171813479
     0.6345637761137042    0.1345641517230174    0.6345667707317684
     0.6345644714685065    0.6345639969213941    0.1345665820987369
     0.6345663599346101    0.6345660941900029    0.6345635018289506
     0.3654344171519738    0.3654345612368779    0.3654349802511108
     0.3654362942307375    0.3654366455906520    0.8654319760365738
     0.3654370411299303    0.8654364543845345    0.3654317798323622
     0.3654341459091826    0.8654399925723971    0.8654299878243970
     0.8654358570862367    0.3654373580098741    0.3654321006346671
     0.8654393466947644    0.3654343826588091    0.8654301763334772
     0.8654355361021197    0.8654361504381073    0.3654310283104679
     0.8654358919422122    0.8654368035973757    0.8654325916308467

  0.00000000E+00  0.00000000E+00  0.00000000E+00
  0.00000000E+00  0.00000000E+00  0.00000000E+00
  0.00000000E+00  0.00000000E+00  0.00000000E+00
  0.00000000E+00  0.00000000E+00  0.00000000E+00
  0.00000000E+00  0.00000000E+00  0.00000000E+00
  0.00000000E+00  0.00000000E+00  0.00000000E+00
  0.00000000E+00  0.00000000E+00  0.00000000E+00
  0.00000000E+00  0.00000000E+00  0.00000000E+00
  0.00000000E+00  0.00000000E+00  0.00000000E+00
  0.00000000E+00  0.00000000E+00  0.00000000E+00
  0.00000000E+00  0.00000000E+00  0.00000000E+00
  0.00000000E+00  0.00000000E+00  0.00000000E+00
  0.00000000E+00  0.00000000E+00  0.00000000E+00
  0.00000000E+00  0.00000000E+00  0.00000000E+00
  0.00000000E+00  0.00000000E+00  0.00000000E+00
  0.00000000E+00  0.00000000E+00  0.00000000E+00
  0.00000000E+00  0.00000000E+00  0.00000000E+00
  0.00000000E+00  0.00000000E+00  0.00000000E+00
  0.00000000E+00  0.00000000E+00  0.00000000E+00
  0.00000000E+00  0.00000000E+00  0.00000000E+00
  0.00000000E+00  0.00000000E+00  0.00000000E+00
  0.00000000E+00  0.00000000E+00  0.00000000E+00
  0.00000000E+00  0.00000000E+00  0.00000000E+00
  0.00000000E+00  0.00000000E+00  0.00000000E+00
  0.00000000E+00  0.00000000E+00  0.00000000E+00
  0.00000000E+00  0.00000000E+00  0.00000000E+00
  0.00000000E+00  0.00000000E+00  0.00000000E+00
  0.00000000E+00  0.00000000E+00  0.00000000E+00
  0.00000000E+00  0.00000000E+00  0.00000000E+00
  0.00000000E+00  0.00000000E+00  0.00000000E+00
  0.00000000E+00  0.00000000E+00  0.00000000E+00
  0.00000000E+00  0.00000000E+00  0.00000000E+00
