System                                  
   1.0000000000000000     
    -1.2685137473451045    3.4187007618075529    9.1997339621729033
     2.3743547332316624   -0.5587088959009848    8.8509917659324646
     1.2357290250610982    0.5249501186777845   -8.4871316586090604
  Y               Sn            
     1     2
Direct
     0.0001085110016060    0.0000351832267571   -0.0001294760871355
     0.5511315105558908    0.4802114575379510    0.2294371611114235
     0.4487599784425743    0.5197533592352438   -0.2293076850242765

  0.00000000E+00  0.00000000E+00  0.00000000E+00
  0.00000000E+00  0.00000000E+00  0.00000000E+00
  0.00000000E+00  0.00000000E+00  0.00000000E+00
