System                                  
   1.0000000000000000     
    10.2852317212148616   -0.0002002927936414   -5.4002187051931321
    -2.8351896634306994    9.8867470578824275   -5.4002254834420542
     0.0099513128610022    0.0132069081834311   12.5149077806612770
  Mg              Mn              O             
     2    32    64
Direct
     0.1939173779322447    0.8188458753146833    0.8911695361507819
     0.6761340018622775    0.3072376990901134    0.3547647199140871
     0.0073493731753737    0.0059758883900283    0.2619580654444892
     0.0071806356623058    0.0065535243552136    0.7647075999308923
     0.9909619609281661    0.4908195446269678    0.2304830960775502
     0.0133306767076240    0.5144406089454590    0.7777483561641950
     0.5051380408081643    1.0007431813350565    0.2620929885439090
     0.5076816680582433    0.0015734763270073    0.7572130100155805
     0.4817798876623524    0.4906051567050924    0.2231482255902127
     0.5028181735240823    0.5001528507821240    0.7482523349669339
     0.0007917100897066    0.2510127927521426    0.9991809894332792
     0.9963802205173881    0.2517509319212393    0.4946688407157982
     0.0113671100120272    0.7608739911651412    0.0254820307274740
     0.9915162672725791    0.7440393981599859    0.4853270417160681
     0.4950991235702158    0.2441256953111501    0.9913939135013493
     0.5038985915585786    0.2554782847369441    0.5017951785230707
     0.5013334885981389    0.7452698151647789    0.9972174131854563
     0.4966615132018687    0.7429543766120141    0.4869436683520565
     0.2597993320823249    0.0070525007131534    0.2671566954607034
     0.2539774636125564    0.0039451440752089    0.7603929802249016
     0.2442786422632699    0.4918782592267790    0.2299139051721306
     0.2467850010500597    0.5007863420612736    0.7471675179286403
     0.7545763294524210    0.9979759608761632    0.2560032937880483
     0.7550252498356150    0.0041856312064842    0.7616486199796741
     0.7382498044878436    0.4902722002140434    0.2222834705921655
     0.7682199981728174    0.5257375483371810    0.7940528661220607
     0.0030350907669080    0.0069716864946045    0.0108893189700195
     0.0060046832392794    0.0070084368735959    0.5140640322003769
     0.0058394038714196    0.5063424908445712    0.0109227656282496
     0.9779390277651313    0.4794219324337128    0.4551559745633439
     0.5026982474160807   -0.0011495043803970   -0.0008254559947613
     0.5100512141184406    0.0055386552642807    0.5155658793156929
     0.4920346248466928    0.4894953085114800    0.9838311738594572
     0.4833510040223437    0.4848753960107671    0.4674058249399116
     0.3662608884531028    0.3855285655103150    0.2313462982071285
     0.3832509318906917    0.4011463698202934    0.7702435814635215
     0.3981210334878851    0.9080571006699248    0.2936988107361748
     0.3960634294870500    0.9054373643961861    0.7902065751270057
     0.8775300921439443    0.3880258729824319    0.2541372982968690
     0.8995410210223025    0.4189695736634436    0.8029041620342177
     0.8959174573360495    0.9073925693490804    0.2913881745139992
     0.8980662067262071    0.9093583967559156    0.7959415305795662
     0.3787902480918435    0.1145362157913527    0.4766642206895794
     0.3763460535836358    0.1084961648217485    0.9724561743976674
     0.3619716430344225    0.5980904919326490    0.4409810121016907
     0.3703182701655109    0.6041051587791471    0.9618127292669030
     0.8716527770671403    0.1111875807532717    0.4692793948251096
     0.8793534400213223    0.1146060631135910    0.9787201753472228
     0.8567997412076025    0.5918582832128890    0.4360230787449312
     0.8831950151188549    0.6235321255866562   -0.0034875540041728
     0.0978761166725836    0.1164137965969076    0.4775694092009661
     0.0996513507015573    0.1125959678809117    0.9766432691680526
     0.0807805005869192    0.5974511673200961    0.4433054490199363
     0.1112787510115332    0.6328247119033070    0.0132333029608835
     0.6008528343870702    0.1105407020263710    0.4704575263309910
     0.5977082835647073    0.1100610026760340    0.9737684099059898
     0.5805354003127094    0.5934371949571353    0.4334666517787976
     0.5932813402211631    0.6049157792681472    0.9641917802448906
     0.1179612338043458    0.1004344936990330    0.2308600538788646
     0.1152468962161721    0.1000963435552383    0.7303347474168287
     0.1050358026709025    0.5935832150822518    0.2158031521922494
     0.1264096131871745    0.6172618100765125    0.7587714684914914
     0.6134599330805373    0.1010841526557471    0.2288661301893733
     0.6145627016792583    0.1010648333387733    0.7272091706006769
     0.6005588985781206    0.5844644092837403    0.1951037471144412
     0.6321218419875410    0.6072007277479042    0.7564935080307644
     0.1050999503737541    0.3669289849415611    0.2070720131952896
     0.0985038855458415    0.3732216605478364    0.7062365227282574
     0.1195508020541282    0.8831724931606079    0.2372574061886177
     0.1327396139411411    0.8960035430051912    0.7660038534341991
     0.6039372319544727    0.3631075038068288    0.2078539658248948
     0.6132178088142251    0.3741840437284206    0.7144388117867274
     0.6102222152580692    0.8737653727968206    0.2221023295015778
     0.6292109039077769    0.8979136295739538    0.7563421040243544
     0.1196111342895735    0.3878946270838837    0.0199584564684301
     0.1194806315373605    0.3966326125188840    0.5277788929540850
     0.1326485241751460    0.8911407087680858    0.0358750320135273
     0.1322492892702790    0.8966138108490310    0.5467100198929947
     0.6172914750453364    0.3779868919098746    0.0124476470610693
     0.6033021430438317    0.3684782246113326    0.4834889483635077
     0.6282678580943764    0.8908209201171601    0.0358074801241167
     0.6356014826766304    0.8978304501010432    0.5460717083986449
     0.3937192512389792    0.1255587248028492    0.2861120482624745
     0.3902544592098535    0.1259089048047697    0.7834856618749331
     0.3674634980368803    0.6016190031478850    0.2329895380225414
     0.3925864171543220    0.6304509257301359    0.7838216580268448
     0.8914877316849611    0.1247887746646247    0.2822371934908712
     0.8948374649247700    0.1270473855720165    0.7855600058557060
     0.8664248865302316    0.5974384512038893    0.2328283342991808
     0.9039245365948101    0.6476536744508204    0.8165009361983478
     0.3957822792072743    0.3780809235878307    0.0097329836304543
     0.4114174175620385    0.3955275311995575    0.5361237126255607
     0.3985831117675577    0.8850272852642408    0.0236946535256043
     0.4142874982066146    0.8971984785378174    0.5446904475986961
     0.9006925518388776    0.3848946187357259    0.0232004443010760
     0.8786588843958022    0.3692042584187789    0.4767618904984274
     0.9138366066322386    0.9009175084683047    0.0497084292680292
     0.9132828553367520    0.8961350725422349    0.5467828131351802

  0.00000000E+00  0.00000000E+00  0.00000000E+00
  0.00000000E+00  0.00000000E+00  0.00000000E+00
  0.00000000E+00  0.00000000E+00  0.00000000E+00
  0.00000000E+00  0.00000000E+00  0.00000000E+00
  0.00000000E+00  0.00000000E+00  0.00000000E+00
  0.00000000E+00  0.00000000E+00  0.00000000E+00
  0.00000000E+00  0.00000000E+00  0.00000000E+00
  0.00000000E+00  0.00000000E+00  0.00000000E+00
  0.00000000E+00  0.00000000E+00  0.00000000E+00
  0.00000000E+00  0.00000000E+00  0.00000000E+00
  0.00000000E+00  0.00000000E+00  0.00000000E+00
  0.00000000E+00  0.00000000E+00  0.00000000E+00
  0.00000000E+00  0.00000000E+00  0.00000000E+00
  0.00000000E+00  0.00000000E+00  0.00000000E+00
  0.00000000E+00  0.00000000E+00  0.00000000E+00
  0.00000000E+00  0.00000000E+00  0.00000000E+00
  0.00000000E+00  0.00000000E+00  0.00000000E+00
  0.00000000E+00  0.00000000E+00  0.00000000E+00
  0.00000000E+00  0.00000000E+00  0.00000000E+00
  0.00000000E+00  0.00000000E+00  0.00000000E+00
  0.00000000E+00  0.00000000E+00  0.00000000E+00
  0.00000000E+00  0.00000000E+00  0.00000000E+00
  0.00000000E+00  0.00000000E+00  0.00000000E+00
  0.00000000E+00  0.00000000E+00  0.00000000E+00
  0.00000000E+00  0.00000000E+00  0.00000000E+00
  0.00000000E+00  0.00000000E+00  0.00000000E+00
  0.00000000E+00  0.00000000E+00  0.00000000E+00
  0.00000000E+00  0.00000000E+00  0.00000000E+00
  0.00000000E+00  0.00000000E+00  0.00000000E+00
  0.00000000E+00  0.00000000E+00  0.00000000E+00
  0.00000000E+00  0.00000000E+00  0.00000000E+00
  0.00000000E+00  0.00000000E+00  0.00000000E+00
  0.00000000E+00  0.00000000E+00  0.00000000E+00
  0.00000000E+00  0.00000000E+00  0.00000000E+00
  0.00000000E+00  0.00000000E+00  0.00000000E+00
  0.00000000E+00  0.00000000E+00  0.00000000E+00
  0.00000000E+00  0.00000000E+00  0.00000000E+00
  0.00000000E+00  0.00000000E+00  0.00000000E+00
  0.00000000E+00  0.00000000E+00  0.00000000E+00
  0.00000000E+00  0.00000000E+00  0.00000000E+00
  0.00000000E+00  0.00000000E+00  0.00000000E+00
  0.00000000E+00  0.00000000E+00  0.00000000E+00
  0.00000000E+00  0.00000000E+00  0.00000000E+00
  0.00000000E+00  0.00000000E+00  0.00000000E+00
  0.00000000E+00  0.00000000E+00  0.00000000E+00
  0.00000000E+00  0.00000000E+00  0.00000000E+00
  0.00000000E+00  0.00000000E+00  0.00000000E+00
  0.00000000E+00  0.00000000E+00  0.00000000E+00
  0.00000000E+00  0.00000000E+00  0.00000000E+00
  0.00000000E+00  0.00000000E+00  0.00000000E+00
  0.00000000E+00  0.00000000E+00  0.00000000E+00
  0.00000000E+00  0.00000000E+00  0.00000000E+00
  0.00000000E+00  0.00000000E+00  0.00000000E+00
  0.00000000E+00  0.00000000E+00  0.00000000E+00
  0.00000000E+00  0.00000000E+00  0.00000000E+00
  0.00000000E+00  0.00000000E+00  0.00000000E+00
  0.00000000E+00  0.00000000E+00  0.00000000E+00
  0.00000000E+00  0.00000000E+00  0.00000000E+00
  0.00000000E+00  0.00000000E+00  0.00000000E+00
  0.00000000E+00  0.00000000E+00  0.00000000E+00
  0.00000000E+00  0.00000000E+00  0.00000000E+00
  0.00000000E+00  0.00000000E+00  0.00000000E+00
  0.00000000E+00  0.00000000E+00  0.00000000E+00
  0.00000000E+00  0.00000000E+00  0.00000000E+00
  0.00000000E+00  0.00000000E+00  0.00000000E+00
  0.00000000E+00  0.00000000E+00  0.00000000E+00
  0.00000000E+00  0.00000000E+00  0.00000000E+00
  0.00000000E+00  0.00000000E+00  0.00000000E+00
  0.00000000E+00  0.00000000E+00  0.00000000E+00
  0.00000000E+00  0.00000000E+00  0.00000000E+00
  0.00000000E+00  0.00000000E+00  0.00000000E+00
  0.00000000E+00  0.00000000E+00  0.00000000E+00
  0.00000000E+00  0.00000000E+00  0.00000000E+00
  0.00000000E+00  0.00000000E+00  0.00000000E+00
  0.00000000E+00  0.00000000E+00  0.00000000E+00
  0.00000000E+00  0.00000000E+00  0.00000000E+00
  0.00000000E+00  0.00000000E+00  0.00000000E+00
  0.00000000E+00  0.00000000E+00  0.00000000E+00
  0.00000000E+00  0.00000000E+00  0.00000000E+00
  0.00000000E+00  0.00000000E+00  0.00000000E+00
  0.00000000E+00  0.00000000E+00  0.00000000E+00
  0.00000000E+00  0.00000000E+00  0.00000000E+00
  0.00000000E+00  0.00000000E+00  0.00000000E+00
  0.00000000E+00  0.00000000E+00  0.00000000E+00
  0.00000000E+00  0.00000000E+00  0.00000000E+00
  0.00000000E+00  0.00000000E+00  0.00000000E+00
  0.00000000E+00  0.00000000E+00  0.00000000E+00
  0.00000000E+00  0.00000000E+00  0.00000000E+00
  0.00000000E+00  0.00000000E+00  0.00000000E+00
  0.00000000E+00  0.00000000E+00  0.00000000E+00
  0.00000000E+00  0.00000000E+00  0.00000000E+00
  0.00000000E+00  0.00000000E+00  0.00000000E+00
  0.00000000E+00  0.00000000E+00  0.00000000E+00
  0.00000000E+00  0.00000000E+00  0.00000000E+00
  0.00000000E+00  0.00000000E+00  0.00000000E+00
  0.00000000E+00  0.00000000E+00  0.00000000E+00
  0.00000000E+00  0.00000000E+00  0.00000000E+00
  0.00000000E+00  0.00000000E+00  0.00000000E+00
