System
1.0
10.285231721214862 -0.0002002927936414 -5.400218705193132
-2.8351896634306994 9.886747057882427 -5.400225483442054
0.0099513128610022 0.0132069081834311 12.514907780661277
Mg Mn O 
2 32 64 
direct
0.1921160912694623 0.8143090788235958 0.8891579890976622 Mg
0.6746589797446252 0.3060502332721893 0.3552312533538154 Mg
0.0003663682229291 0.0055615055714492 0.2536487901210338 Mn
0.0134586171484164 0.0091132662135541 0.7699713148946546 Mn
0.9914658642568693 0.492712573738191 0.2350826411690473 Mn
0.0142635584711884 0.5114415677561472 0.7779115713024848 Mn
0.5058518850084776 -3.9931484317e-06 0.2599328952360828 Mn
0.5127372701323871 0.0063267667329891 0.7669936963306424 Mn
0.4823368761551059 0.4911159311742009 0.2242690704274823 Mn
0.5014626843458073 0.4993951209900019 0.7478035030320778 Mn
0.0011037459072686 0.2520642605913538 -0.0002119962237123 Mn
0.9918442866771346 0.2473070493125575 0.4873288881682064 Mn
0.0119694688160084 0.7600254533851631 0.0234474917121563 Mn
0.9921971264566521 0.7464774470072639 0.4922944683851534 Mn
0.4977634379998055 0.2476703902831627 -0.0013881645644217 Mn
0.5039686951591645 0.255513142308753 0.5044969371302958 Mn
0.4991378952776758 0.7439934422462502 0.9932584892884834 Mn
0.4971734563519766 0.7404460469647757 0.4816813774468002 Mn
0.2608533251121756 0.0102872881535522 0.2671092243542246 Mn
0.2615488525398986 0.0090162466430482 0.7747589770446367 Mn
0.246282492090676 0.4912362073020746 0.2325861961901789 Mn
0.2451769686754602 0.497042122792419 0.744178130401444 Mn
0.7504722563322059 0.9941640734329856 0.243523942857051 Mn
0.7538968143778756 0.0030778836297148 0.7571248373155696 Mn
0.738917732089866 0.4930661014573561 0.2259368336888948 Mn
0.7665929543493311 0.5237137616579337 0.7941042952853 Mn
0.0037988757385345 0.0072802997192607 0.0091326630303769 Mn
0.0025705188857387 0.0081365963755341 0.5127464069303624 Mn
0.0078710382633057 0.5109364030572557 0.0151182275679038 Mn
0.9786082222444736 0.4804133420846122 0.4583102371537046 Mn
0.5031496535796534 0.000559840676355 0.0038450951449688 Mn
0.5073061247194474 0.0030858668693866 0.5089527408989248 Mn
0.4918559174335092 0.4901970665046658 0.9844813371009519 Mn
0.48545124842676 0.4860475080630964 0.4713743876419602 Mn
0.3658779300747045 0.3852280282334193 0.2317931143618941 O
0.3830833976711653 0.3994190440968561 0.770581217013329 O
0.39764436560888 0.9087919722564652 0.2937350359105414 O
0.4009705923405686 0.90844625563067 0.7996490522062637 O
0.8789298800850441 0.3901387678427616 0.2562274487585157 O
0.9036208319759956 0.4203099010606243 0.8106642056252958 O
0.8778566147248145 0.8969563339889091 0.2521071170608807 O
0.8993207087423104 0.9100659208755989 0.7969966591417559 O
0.3758764960772097 0.1134249727446146 0.4754121884576753 O
0.3768403729130438 0.1117738736242569 0.9795449227079035 O
0.3627561452351463 0.5988111262808675 0.4418974587522144 O
0.3691719618068557 0.6031275207012147 0.9601631910591835 O
0.8637164447025075 0.1059126452539409 0.4555834655448519 O
0.8791550420653825 0.1151692345767546 0.9771794568366096 O
0.8571222757118075 0.5930085377041047 0.4397977048958869 O
0.8902283371525327 0.6294892534311255 0.0047657840885356 O
0.090214910110403 0.1096046275265057 0.4660161524622304 O
0.1018486470552607 0.1157626372177797 0.980748911195919 O
0.0813837610634833 0.5994395917591372 0.446421405523877 O
0.1147260804506795 0.6344551737853248 0.0165715415163076 O
0.6027999950392382 0.1161052250989144 0.4822307201389137 O
0.6033799624006018 0.118699310191225 -0.0089688227917888 O
0.5818347013544362 0.5915203692009144 0.4342824663614553 O
0.5922517015421295 0.6040594626470726 0.9630522523985874 O
0.1191827505883425 0.1001950394262508 0.2285727825882956 O
0.1323958330101635 0.104726463891682 0.7555226420754099 O
0.1118713222034875 0.6065437077764315 0.2305245160004128 O
0.1236358771921433 0.6125163623835268 0.7541784223062423 O
0.6092083616244583 0.1010514300878007 0.223617326592345 O
0.6098452406221279 0.0963018677834142 0.7181294331851114 O
0.600956094434288 0.5862623916833122 0.197609665263453 O
0.6303314771639569 0.6060967819921369 0.7553060460581176 O
0.1058779671099882 0.3707262938766758 0.2105807502219292 O
0.0957303962452715 0.3685911710574685 0.7020647940413737 O
0.1223106264056675 0.8833531863460469 0.2446658710948448 O
0.1350222008870423 0.892353729451458 0.7658657878167778 O
0.6046295315803369 0.3664005021114127 0.2121063931085508 O
0.6116833771843038 0.3734001577440405 0.7154136457340481 O
0.6086607001930668 0.8707789038539258 0.2143345117384604 O
0.6274440769884851 0.8963750687261844 0.751069207934217 O
0.1214978814149631 0.392319313940291 0.0250337743625127 O
0.1182123677295647 0.3946476953617155 0.5254265500878378 O
0.1358515116332387 0.891710311215282 0.0375712431364775 O
0.1282492947296516 0.8845713382284142 0.5269788707963575 O
0.618583376711691 0.3796148932188218 0.0165783328328943 O
0.603702975221102 0.3679913719951086 0.4855969336628674 O
0.6241766456846353 0.8895484787532157 0.0288896516989769 O
0.6332292256162639 0.8956647504446578 0.5408876202739784 O
0.3951489610429993 0.1277604978901578 0.2886762863164055 O
0.3949022506015521 0.1288274383717808 0.7926562167700649 O
0.3677697971337934 0.6019611170582689 0.234460298496092 O
0.3896326177071128 0.6268725490748022 0.7799672266842481 O
0.8886523421216573 0.125810279110835 0.274123165299505 O
0.898685058720409 0.128952381206914 0.7875533766203923 O
0.8676398143923995 0.6000004395315376 0.2367129282609502 O
0.9093182470073992 0.6479674167310614 0.8186189978444228 O
0.3965979356773222 0.380315348622968 0.0128582930135109 O
0.4106757024014552 0.3961020476375999 0.5367003583704723 O
0.3955460828844412 0.8802828328829225 0.0165295843241368 O
0.3941408912476746 0.8782167658022925 0.5084096975724371 O
0.9035107101595725 0.3902832024979243 0.0286857215769878 O
0.8769600636255863 0.3676401989523329 0.4744038100506497 O
0.9146466677615088 0.8993127009648613 0.0444045769380861 O
0.9189223731251006 0.9001501792600486 0.5553135442395432 O
