System                                  
   1.0000000000000000     
     5.3670469005608537    0.0462579843465466    8.2100596820004075
     2.4342502571834710    4.8782326532226712    8.2356834140381512
    -0.0408226551610946    0.0361012653913643    9.8763466914105056
  Li              Co              O             
     1     8    16
Direct
     0.7478641530647804    0.2437024538479606    0.7585101254663411
     0.0050046774936995    0.0018087563484820    0.0021321640274534
    -0.0025580899797739    0.9963725223128542    0.4965076305436625
    -0.0006902398005249    0.4984393269286043   -0.0012751831631013
     0.0048692869854089    0.5025978508904512    0.5016364539763624
     0.4971392660145443    0.9970862206055831   -0.0030181566090026
     0.5026455811418162    1.0000169963592791    0.5001899690660243
     0.5044809385292783    0.5022461275304279    0.0023231811342133
     0.4975338141464370    0.4966229624886049    0.4962134752318351
     0.1279144081706761    0.1365832465407048    0.1278879339595173
     0.1271435924410375    0.1387730518840306    0.6353429343728477
     0.1348310750545684    0.6365532273603444    0.1359585526659527
     0.1257907532587604    0.6292040074694317    0.6367446922868174
     0.6352780553926871    0.1380383398735809    0.1287969933043316
     0.6256779384073310    0.1313588358539744    0.6333921880315112
     0.6353449198129306    0.6260145802640394    0.1306903214054605
     0.6353952588784145    0.6279022378797555    0.6378491196609599
     0.3761850461282724    0.3630197285139796    0.3687226193482923
     0.3736868906169875    0.3654234009788480    0.8592129995152965
     0.3697634324713442    0.8626605282165006    0.3607338742319790
     0.3757773659765861    0.8681181156905778    0.8626037227615972
     0.8669955091724093    0.3613947299977193    0.3699553936585343
     0.8732320878402714    0.3666232319412941    0.8677522890563827
     0.8684209112257926    0.8684181859825374    0.3709837272110120
     0.8647118900047883    0.8704788078417167    0.8626637871601918

  0.00000000E+00  0.00000000E+00  0.00000000E+00
  0.00000000E+00  0.00000000E+00  0.00000000E+00
  0.00000000E+00  0.00000000E+00  0.00000000E+00
  0.00000000E+00  0.00000000E+00  0.00000000E+00
  0.00000000E+00  0.00000000E+00  0.00000000E+00
  0.00000000E+00  0.00000000E+00  0.00000000E+00
  0.00000000E+00  0.00000000E+00  0.00000000E+00
  0.00000000E+00  0.00000000E+00  0.00000000E+00
  0.00000000E+00  0.00000000E+00  0.00000000E+00
  0.00000000E+00  0.00000000E+00  0.00000000E+00
  0.00000000E+00  0.00000000E+00  0.00000000E+00
  0.00000000E+00  0.00000000E+00  0.00000000E+00
  0.00000000E+00  0.00000000E+00  0.00000000E+00
  0.00000000E+00  0.00000000E+00  0.00000000E+00
  0.00000000E+00  0.00000000E+00  0.00000000E+00
  0.00000000E+00  0.00000000E+00  0.00000000E+00
  0.00000000E+00  0.00000000E+00  0.00000000E+00
  0.00000000E+00  0.00000000E+00  0.00000000E+00
  0.00000000E+00  0.00000000E+00  0.00000000E+00
  0.00000000E+00  0.00000000E+00  0.00000000E+00
  0.00000000E+00  0.00000000E+00  0.00000000E+00
  0.00000000E+00  0.00000000E+00  0.00000000E+00
  0.00000000E+00  0.00000000E+00  0.00000000E+00
  0.00000000E+00  0.00000000E+00  0.00000000E+00
  0.00000000E+00  0.00000000E+00  0.00000000E+00
