System
1.0
5.46892 0.02261 8.31103
2.50597 4.86104 8.31103
0.03694 0.02263 9.94903
Li Co O 
5 8 16 
direct
0.2508612062922619 0.7513082407286268 0.7515758549896782 j
0.7484446596302168 0.24927348033361868 0.24859658223600034 j
0.7513145851326773 0.2508622712340449 0.751576015358818 j
0.7511157747552569 0.7510944082006963 0.25138190890965184 i
0.7488012781815885 0.748772966141675 0.7488600128896566 i
0.0020136541622107003 0.0020205967023466994 0.00021598083317009962 i
0.001673292981036302 0.0016681821188150002 0.500402332997825 i
0.0009664836338720575 0.4989192894599224 3.2037319570756114e-05 h
0.0014611662260800191 0.49860260505154225 0.4999443518371227 g
0.4989249081887429 0.0009608901995091998 3.33603474270859e-05 h
0.4985996350424067 0.0014678804072367007 0.4999408212087496 g
0.4980988583447115 0.4980945824525917 0.9996080131766772 i
0.4982138608085457 0.4982093461389977 0.4997039512144461 i
0.1273388055922587 0.1273323011032167 0.1408495329199244 i
0.12765678126493044 0.1276740892098137 0.6385746672043645 i
0.125382768559866 0.6395618619271451 0.1285470634465341 j
0.12716916019816057 0.640565830013414 0.6270865090743507 j
0.6395444181218165 0.1253876874798742 0.12856450540117173 j
0.6405728601341588 0.12716465855861459 0.6270891140252645 j
0.6298641683855994 0.6298625359665466 0.12940208757228977 i
0.6304181901200989 0.6304158254832364 0.6264871380713223 i
0.372354266493054 0.37237694969862095 0.3614214778034814 i
0.37256108209976485 0.37255800511594284 0.8592960993617375 i
0.37294807907405136 0.8591392892927248 0.3730107252718788 j
0.37390572901824704 0.861655801069292 0.8711007687300837 j
0.8591426412477374 0.37294703772875826 0.3730104170203876 j
0.8616465512819563 0.3739036542077783 0.8711175323619882 j
0.8697662421648139 0.8697569007401155 0.3731292674450849 i
0.8699779487361283 0.8699764166038453 0.8708494060786226 i
