System                                  
   1.0000000000000000     
     9.9015318818980518   -0.0029042419883908   -0.0007142019669570
     0.0041419836783453   12.6704771506255529   -0.0001725386821971
     0.0006616192750717    0.0001170106063957    9.3673017467993702
  Li              Fe              P               O             
    16    16    16    64
Direct
     0.2374043953461815    0.1249905771438153    0.1696385046548965
     0.2374043910317157    0.6249905747026648    0.1696385082455235
     0.7374043785844430    0.1249905905631744    0.1696385027990449
     0.7374043878759249    0.6249906123159559    0.1696384969670228
     0.4874036982674280    0.3749888416160939    0.3303617576505592
     0.4874036999133861    0.8749888423381164    0.3303617504159932
     0.9874037086922292    0.3749888297124804    0.3303617549867319
     0.9874036865342082    0.8749888206093546    0.3303617264648467
     0.0125960466685026    0.1250113648363840    0.6696377917099606
     0.0125960373508620    0.6250113653354278    0.6696378039719635
     0.5125960297800094    0.1250114107306123    0.6696378026965797
     0.5125960321050399    0.6250114116462112    0.6696377957681268
     0.2625950090522989    0.3750095190012251    0.8303608601943474
     0.2625950285991997    0.8750095190605491    0.8303608609568500
     0.7625949998916015    0.3750095286662171    0.8303608580046415
     0.7625950440554793    0.8750095148120816    0.8303608490934070
     0.9999999478049612    0.0000000397310503    0.9999996907376746
     0.9999999414015708    0.5000000778463183    0.9999997390553665
     0.4999999397582918    0.0000000668723315    0.9999997387288383
     0.4999999241755755    0.5000000787994262    0.9999997273392420
     0.9999999312435236    0.2500000369099306    0.9999997378738262
     0.9999999009843223    0.7499999910255035    0.9999997061510963
     0.4999999417105295    0.2500000314871387    0.9999997502348399
     0.4999999914631965    0.7500000444004935    0.9999997746645257
     0.2499999550544297    0.0000001573158789    0.4999995323849568
     0.2499998986410543    0.5000001803941981    0.4999995657178239
     0.7499999140435918    0.0000001559184988    0.4999995649187433
     0.7499999060400300    0.5000001835238655    0.4999995628335107
     0.2499991197994884    0.2500000220468388    0.5000001169924689
     0.2499991166962418    0.7499999990471576    0.5000001275665948
     0.7499990897817163    0.2500000243981154    0.5000001261438364
     0.7499991186556912    0.7500000195420655    0.5000001454369446
     0.2636316633783384    0.1250090675783215    0.8216869664250165
     0.2636315732812889    0.6250091791974101    0.8216868211818742
     0.7636315570381836    0.1250091058209097    0.8216869772891437
     0.7636316514425653    0.6250091963461145    0.8216869515838428
     0.0136327524844033    0.3750052010183464    0.6783165849592464
     0.0136326135908109    0.8750050688850014    0.6783166111255018
     0.5136326557403389    0.3750051441264172    0.6783166060597834
     0.5136325612255865    0.8750052269518142    0.6783166460815719
     0.4863668693281453    0.1249942978688731    0.3216832796663833
     0.4863668342505725    0.6249944371256866    0.3216833681468033
     0.9863669827366784    0.1249943445628207    0.3216832694239678
     0.9863670209863572    0.6249944461621361    0.3216833484064614
     0.2363685349509284    0.3749907662663176    0.1783128740221102
     0.2363685638724937    0.8749909100354605    0.1783129317411248
     0.7363685016281328    0.3749907686434139    0.1783128198781215
     0.7363678804299162    0.8749907470862713    0.1783127452301246
     0.1099785560309057    0.1250100179543744    0.8599209979382094
     0.1099785917182595    0.6250100132690302    0.8599210212791284
     0.6099786092326139    0.1250100259272315    0.8599209896186099
     0.6099785578347975    0.6250100063467539    0.8599210033243387
     0.0413723593791509    0.3750033529366875    0.8441995975829376
     0.0413724172219212    0.8750033508673039    0.8441996115300764
     0.5413723650864763    0.3750033691914086    0.8441995673584396
     0.5413723656696685    0.8750033709491537    0.8441995733971923
     0.2913731170248115    0.1250019956275069    0.6557954689995692
     0.2913731525719846    0.6250019739828719    0.6557955243149983
     0.7913731475813708    0.1250019873209379    0.6557954317607676
     0.7913731185185493    0.6250019687647708    0.6557954621683342
     0.3599801595198446    0.3750127333225123    0.6400765204096726
     0.3599802144433950    0.8750127363741812    0.6400765263958310
     0.8599800930199305    0.3750127241100037    0.6400765082667272
     0.8599801739437667    0.8750127064726616    0.6400765083126558
     0.0798003306147478    0.2739298076045027    0.6181823751069015
     0.0798003764201818    0.7739297783993957    0.6181823732883369
     0.5798003453918205    0.2739298277435034    0.6181823757987932
     0.5798004091932898    0.7739297507312426    0.6181823205602769
     0.0798034727283987    0.4760923913730269    0.6181919353709864
     0.0798035463640541    0.9760924277667400    0.6181918946264062
     0.5798034983462083    0.4760924200095571    0.6181919230714999
     0.5798035133908344    0.9760924147383278    0.6181919231005000
     0.4201956281867973    0.0239064726824727    0.3818077576910998
     0.4201956179328286    0.5239064320996293    0.3818077643179547
     0.9201955963223960    0.0239064066895324    0.3818077632993634
     0.9201955701433319    0.5239063871640328    0.3818078073864102
     0.1701957095826032    0.2739114539633241    0.1181916545499682
     0.1701956621752766    0.7739113664636932    0.1181916107123122
     0.6701957006130733    0.2739114391717179    0.1181916409336295
     0.6701954153153874    0.7739113098563940    0.1181916189630840
     0.1400189174287103    0.1249877576458686    0.3599230930843408
     0.1400188862361261    0.6249877391704420    0.3599230597921282
     0.6400189884308823    0.1249877540537417    0.3599231072117397
     0.6400190114079387    0.6249877364642656    0.3599231055023531
     0.2086264126504364    0.3749981137331335    0.3442038387895723
     0.2086264048150036    0.8749981096766714    0.3442038102478967
     0.7086264173389160    0.3749981247355558    0.3442038958764173
     0.7086264838185689    0.8749981536107362    0.3442038554471425
     0.4586274946659745    0.1249969006685371    0.1557992161717127
     0.4586274829579339    0.6249968785037169    0.1557991543490519
     0.9586274813771173    0.1249968845122763    0.1557992171109225
     0.9586274878425496    0.6249968792537949    0.1557991760681403
     0.3900210425343937    0.3749900101242665    0.1400788512994787
     0.3900210388337091    0.8749900097490534    0.1400788448974596
     0.8900210739159183    0.3749900167096776    0.1400788591146681
     0.8900201336893052    0.8749886743312059    0.1400767817663787
     0.3298043870024078    0.2260888155196667    0.8818078890899520
     0.3298043918147395    0.7260888022909845    0.8818078939308320
     0.8298044150128991    0.2260888315388800    0.8818079059377369
     0.8298043774189966    0.7260887673633453    0.8818078727873855
     0.1701993984538104    0.4760745145370492    0.1181819624194618
     0.1701993837066320    0.9760744585339147    0.1181819807928029
     0.6701994120170119    0.4760745123085136    0.1181819780724901
     0.6701994434765107    0.9760744936810841    0.1181820648308122
     0.4201984185730454    0.2260704460445315    0.3818173409538916
     0.4201985189380847    0.7260703588874069    0.3818172528621996
     0.9201984250279660    0.2260704271435787    0.3818173170895073
     0.9201984589857717    0.7260703859465556    0.3818172745402523
     0.3298004543584059    0.0239257246028726    0.8818173818114927
     0.3298005387127278    0.5239256155829288    0.8818174635343941
     0.8298005207017951    0.0239256768805683    0.8818173893369677
     0.8298004804227187    0.5239256605057921    0.8818173956212796

  0.00000000E+00  0.00000000E+00  0.00000000E+00
  0.00000000E+00  0.00000000E+00  0.00000000E+00
  0.00000000E+00  0.00000000E+00  0.00000000E+00
  0.00000000E+00  0.00000000E+00  0.00000000E+00
  0.00000000E+00  0.00000000E+00  0.00000000E+00
  0.00000000E+00  0.00000000E+00  0.00000000E+00
  0.00000000E+00  0.00000000E+00  0.00000000E+00
  0.00000000E+00  0.00000000E+00  0.00000000E+00
  0.00000000E+00  0.00000000E+00  0.00000000E+00
  0.00000000E+00  0.00000000E+00  0.00000000E+00
  0.00000000E+00  0.00000000E+00  0.00000000E+00
  0.00000000E+00  0.00000000E+00  0.00000000E+00
  0.00000000E+00  0.00000000E+00  0.00000000E+00
  0.00000000E+00  0.00000000E+00  0.00000000E+00
  0.00000000E+00  0.00000000E+00  0.00000000E+00
  0.00000000E+00  0.00000000E+00  0.00000000E+00
  0.00000000E+00  0.00000000E+00  0.00000000E+00
  0.00000000E+00  0.00000000E+00  0.00000000E+00
  0.00000000E+00  0.00000000E+00  0.00000000E+00
  0.00000000E+00  0.00000000E+00  0.00000000E+00
  0.00000000E+00  0.00000000E+00  0.00000000E+00
  0.00000000E+00  0.00000000E+00  0.00000000E+00
  0.00000000E+00  0.00000000E+00  0.00000000E+00
  0.00000000E+00  0.00000000E+00  0.00000000E+00
  0.00000000E+00  0.00000000E+00  0.00000000E+00
  0.00000000E+00  0.00000000E+00  0.00000000E+00
  0.00000000E+00  0.00000000E+00  0.00000000E+00
  0.00000000E+00  0.00000000E+00  0.00000000E+00
  0.00000000E+00  0.00000000E+00  0.00000000E+00
  0.00000000E+00  0.00000000E+00  0.00000000E+00
  0.00000000E+00  0.00000000E+00  0.00000000E+00
  0.00000000E+00  0.00000000E+00  0.00000000E+00
  0.00000000E+00  0.00000000E+00  0.00000000E+00
  0.00000000E+00  0.00000000E+00  0.00000000E+00
  0.00000000E+00  0.00000000E+00  0.00000000E+00
  0.00000000E+00  0.00000000E+00  0.00000000E+00
  0.00000000E+00  0.00000000E+00  0.00000000E+00
  0.00000000E+00  0.00000000E+00  0.00000000E+00
  0.00000000E+00  0.00000000E+00  0.00000000E+00
  0.00000000E+00  0.00000000E+00  0.00000000E+00
  0.00000000E+00  0.00000000E+00  0.00000000E+00
  0.00000000E+00  0.00000000E+00  0.00000000E+00
  0.00000000E+00  0.00000000E+00  0.00000000E+00
  0.00000000E+00  0.00000000E+00  0.00000000E+00
  0.00000000E+00  0.00000000E+00  0.00000000E+00
  0.00000000E+00  0.00000000E+00  0.00000000E+00
  0.00000000E+00  0.00000000E+00  0.00000000E+00
  0.00000000E+00  0.00000000E+00  0.00000000E+00
  0.00000000E+00  0.00000000E+00  0.00000000E+00
  0.00000000E+00  0.00000000E+00  0.00000000E+00
  0.00000000E+00  0.00000000E+00  0.00000000E+00
  0.00000000E+00  0.00000000E+00  0.00000000E+00
  0.00000000E+00  0.00000000E+00  0.00000000E+00
  0.00000000E+00  0.00000000E+00  0.00000000E+00
  0.00000000E+00  0.00000000E+00  0.00000000E+00
  0.00000000E+00  0.00000000E+00  0.00000000E+00
  0.00000000E+00  0.00000000E+00  0.00000000E+00
  0.00000000E+00  0.00000000E+00  0.00000000E+00
  0.00000000E+00  0.00000000E+00  0.00000000E+00
  0.00000000E+00  0.00000000E+00  0.00000000E+00
  0.00000000E+00  0.00000000E+00  0.00000000E+00
  0.00000000E+00  0.00000000E+00  0.00000000E+00
  0.00000000E+00  0.00000000E+00  0.00000000E+00
  0.00000000E+00  0.00000000E+00  0.00000000E+00
  0.00000000E+00  0.00000000E+00  0.00000000E+00
  0.00000000E+00  0.00000000E+00  0.00000000E+00
  0.00000000E+00  0.00000000E+00  0.00000000E+00
  0.00000000E+00  0.00000000E+00  0.00000000E+00
  0.00000000E+00  0.00000000E+00  0.00000000E+00
  0.00000000E+00  0.00000000E+00  0.00000000E+00
  0.00000000E+00  0.00000000E+00  0.00000000E+00
  0.00000000E+00  0.00000000E+00  0.00000000E+00
  0.00000000E+00  0.00000000E+00  0.00000000E+00
  0.00000000E+00  0.00000000E+00  0.00000000E+00
  0.00000000E+00  0.00000000E+00  0.00000000E+00
  0.00000000E+00  0.00000000E+00  0.00000000E+00
  0.00000000E+00  0.00000000E+00  0.00000000E+00
  0.00000000E+00  0.00000000E+00  0.00000000E+00
  0.00000000E+00  0.00000000E+00  0.00000000E+00
  0.00000000E+00  0.00000000E+00  0.00000000E+00
  0.00000000E+00  0.00000000E+00  0.00000000E+00
  0.00000000E+00  0.00000000E+00  0.00000000E+00
  0.00000000E+00  0.00000000E+00  0.00000000E+00
  0.00000000E+00  0.00000000E+00  0.00000000E+00
  0.00000000E+00  0.00000000E+00  0.00000000E+00
  0.00000000E+00  0.00000000E+00  0.00000000E+00
  0.00000000E+00  0.00000000E+00  0.00000000E+00
  0.00000000E+00  0.00000000E+00  0.00000000E+00
  0.00000000E+00  0.00000000E+00  0.00000000E+00
  0.00000000E+00  0.00000000E+00  0.00000000E+00
  0.00000000E+00  0.00000000E+00  0.00000000E+00
  0.00000000E+00  0.00000000E+00  0.00000000E+00
  0.00000000E+00  0.00000000E+00  0.00000000E+00
  0.00000000E+00  0.00000000E+00  0.00000000E+00
  0.00000000E+00  0.00000000E+00  0.00000000E+00
  0.00000000E+00  0.00000000E+00  0.00000000E+00
  0.00000000E+00  0.00000000E+00  0.00000000E+00
  0.00000000E+00  0.00000000E+00  0.00000000E+00
  0.00000000E+00  0.00000000E+00  0.00000000E+00
  0.00000000E+00  0.00000000E+00  0.00000000E+00
  0.00000000E+00  0.00000000E+00  0.00000000E+00
  0.00000000E+00  0.00000000E+00  0.00000000E+00
  0.00000000E+00  0.00000000E+00  0.00000000E+00
  0.00000000E+00  0.00000000E+00  0.00000000E+00
  0.00000000E+00  0.00000000E+00  0.00000000E+00
  0.00000000E+00  0.00000000E+00  0.00000000E+00
  0.00000000E+00  0.00000000E+00  0.00000000E+00
  0.00000000E+00  0.00000000E+00  0.00000000E+00
  0.00000000E+00  0.00000000E+00  0.00000000E+00
  0.00000000E+00  0.00000000E+00  0.00000000E+00
  0.00000000E+00  0.00000000E+00  0.00000000E+00
  0.00000000E+00  0.00000000E+00  0.00000000E+00
