System
1.0
11.400938747708212 -0.127046185305991 -0.2333408100202317
-5.717220176732502 9.997921982161543 0.0770862630575056
0.0362140596339119 0.0921245990614989 9.263612084811271
Li Mn Co Ni O 
7 12 8 12 64 
direct
0.1739637646505024 0.3369420004122275 0.8996436530242496 Li
0.6740689607098949 0.3374463582136046 0.8979719461216958 Li
0.6739234091242092 0.8375214649219334 0.8980068572893866 Li
0.3324947778798777 0.1612478550916552 0.4021459203239433 Li
0.3323809208053884 0.6608889543839136 0.4028777610849032 Li
0.8320683099101411 0.1684811725774424 0.4005745169644112 Li
0.8316037279590056 0.6681927840255191 0.4019963201496399 Li
0.0840823760354675 0.4129598646188612 0.2101259761650626 Mn
0.0839619156549429 0.9129287232331077 0.2105178815636353 Mn
0.5835971345620194 0.4204365707655617 0.2110190834892932 Mn
0.583570839486032 0.920437145762287 0.2110901374588795 Mn
0.0851210730270322 0.1637677131495837 0.21363670201372 Mn
0.0849484661060601 0.6636390811661554 0.2144448772944071 Mn
0.5844901884222311 0.172144087719655 0.20869083660606 Mn
0.5844227214126984 0.6720977209126378 0.2091319029769088 Mn
0.1660959009128733 0.0813678182010594 0.7106465495683691 Mn
0.1659850932166078 0.5813669098566614 0.7112818434548377 Mn
0.6662384018984988 0.0839362047463827 0.7099186575051201 Mn
0.666042045150288 0.5838575783781331 0.7108521623805979 Mn
0.1686326089556857 0.3277295196785461 0.4858378667817209 Co
0.1684480622539142 0.827854356143316 0.4863140149044704 Co
0.6672316850428921 0.3381321858170002 0.4856229132955177 Co
0.6673110604028203 0.8382751992662038 0.4857062342254035 Co
0.3417460508364134 0.1735135353198291 0.9829931653618775 Co
0.341485466663645 0.673350820707909 0.9834861720709334 Co
0.8412111717853893 0.1690138934230261 0.983901838607188 Co
0.8410756093958828 0.6690269685001756 0.9845572228282672 Co
0.4183604239598134 0.0865205317975522 0.7107747428710629 Ni
0.4181382857651252 0.5863084506025805 0.7113603828426484 Ni
0.9155593849761614 0.0844611963437122 0.7118234023198098 Ni
0.915478388464761 0.5844562149222584 0.712739438935615 Ni
0.3329635333406885 0.4147913055938152 0.2088801033386637 Ni
0.3328281072062687 0.9146822645409173 0.2094258716835496 Ni
0.8325512582942494 0.4188529343483974 0.2096039270427096 Ni
0.8325660891817109 0.9188281949687893 0.2095064452982935 Ni
0.4146833576240515 0.3315139330129703 0.7113295809575041 Ni
0.4147544666083909 0.8315909903865487 0.7116038656806705 Ni
0.9180616418724485 0.3322252402840044 0.7102693482039151 Ni
0.9180621907378407 0.8322398348527478 0.7109427658630214 Ni
0.1716225420899446 0.0840309970473099 0.1071807480044957 O
0.1716049939129395 0.5842489933623516 0.1074484162430687 O
0.67242418837704 0.0898410342147049 0.1060780944289814 O
0.6724200230861024 0.589965219459068 0.106385392321132 O
0.4205910319807682 0.3387715652406797 0.0924049623427588 O
0.4203637650809833 0.8388068615138737 0.0929138037677051 O
0.9187531030086494 0.3239207441109226 0.0957462439737936 O
0.9186822345272335 0.8240239993225824 0.0962197726441072 O
0.3354407378144608 0.1697464970534067 0.6098368258234322 O
0.3352784682582403 0.6695825871638026 0.6104340370991698 O
0.8349161570518548 0.1677780917818542 0.6087564069200972 O
0.8347512810947785 0.6677713082240508 0.6098562567573698 O
0.263048185176089 0.0251747470273621 0.8431118366085084 O
0.2628012685861716 0.5249969597371552 0.8435829636916725 O
0.7615877414258372 0.0227197135394475 0.8399482698188201 O
0.7615118780286725 0.5227255222741413 0.8408505800729957 O
0.2615749203482842 0.2394086941327521 0.8380392445081164 O
0.261442298577303 0.739312343013394 0.8389307748690855 O
0.7622047711874003 0.2378901886253335 0.840441345648385 O
0.7621741351038473 0.73795218652719 0.8413021879593239 O
0.320212327886693 0.4050413371854893 0.5988518908613151 O
0.3200410194380438 0.9051739535365414 0.5988315138646968 O
0.8182181843505838 0.4136455995973217 0.5978422895178999 O
0.8183449700580003 0.9136088278866887 0.5978628419927967 O
0.2326958578569328 0.2489922142312032 0.3498338090421249 O
0.2324406041727551 0.7487974223256157 0.3506718876550695 O
0.737380044119544 0.2635684124168953 0.3435833249144735 O
0.737198832840771 0.76338924599112 0.3440266136153391 O
0.0198972740540594 0.2563454782488793 0.3384855856456873 O
0.0196021918146395 0.7562963791912258 0.3391168511259457 O
0.5188836525483345 0.2612748189712002 0.3365988660499369 O
0.5188248152990445 0.7612818155427118 0.336930714908259 O
0.0792854156954785 0.1601666423382583 0.5967000060923692 O
0.0792862054499529 0.6605009010515644 0.5978226674115611 O
0.5836775318825665 0.1665056403391638 0.5976110765767556 O
0.5837324754102573 0.6666920387989101 0.5986982877414999 O
0.997539949932835 0.9984592307689866 0.8084146281363802 O
0.997260227600394 0.4979873386742709 0.8087237958851645 O
0.4971569579701002 0.9972925413572261 0.8077766373207752 O
0.4966725366977793 0.4967446148551441 0.8081780341132044 O
0.9990374510347322 0.9945452275856406 0.3097048888826638 O
0.9990126247967397 0.4941661219283447 0.3098883781340834 O
0.4984973251482163 0.002308889322176 0.3078157879745439 O
0.4983159134402827 0.5020535779853009 0.3078655080353406 O
0.1683905406881688 0.3310601488927922 0.1077238748444221 O
0.1681546704516426 0.8308384303465324 0.1084337693637349 O
0.6673217706106718 0.3391714376172875 0.1059858234236394 O
0.6672504816033032 0.8390261575469561 0.1061791704504858 O
0.4835174781478807 0.2516654787960427 0.8457766917237143 O
0.4833033055543062 0.751323642307704 0.8467403221909652 O
0.9831584893745989 0.2358067849981887 0.8486701438942145 O
0.9831843125273533 0.7358845072142628 0.8498060426934114 O
0.0849077951723088 0.4176041742182405 0.60114272279834 O
0.0847442729385571 0.9174153570380518 0.6011174133317673 O
0.5789569922833531 0.4187211003010538 0.5990543476754455 O
0.5790026662620765 0.9187242571831732 0.5984107579061444 O
0.2380806707444819 0.4732821665617842 0.3449551426531907 O
0.2380596149961438 0.9733492601679691 0.3451618261197542 O
0.731484486446663 0.482103724000213 0.3486714856713514 O
0.7316619172614793 0.9821418636791588 0.3484531068783513 O
0.4193417747979143 0.0976913601283148 0.0948314887835599 O
0.4193295076037719 0.5976463311004545 0.0951457253929203 O
0.9211374425574975 0.0847143478974299 0.0954864433390978 O
0.9210757791102557 0.5846547447619295 0.096152589764346 O
