System                                  
   1.0000000000000000     
     9.7328162670128595   -2.9422308678484201   -0.0036126565761289
     9.7328214502810280    2.9422468244882181   -0.0036019673243437
     8.8452098331529427    0.0000163617681715    5.0145796595454266
  Rb              Li              Fe              F             
     4     1     2    12
Direct
     0.2883212102335030    0.2883215828697487    0.2883249329291938
     0.1248417043294086    0.1248422203802331    0.1248362266748109
     0.8737815619975237    0.8737809553525834    0.8737921263007669
     0.7177936978919303    0.7177930478623087    0.7177891819557070
     0.5947653561452497    0.5947629189958900    0.5947659394747239
     0.4977248614119042    0.4977258497354042    0.4977280783359796
     0.9988783177598860   -0.0011204802587419    0.9988765804695580
     0.1884682632078951    0.1884671327464597    0.7316995336224480
     0.1884694771861928    0.7316976116868833    0.1884684807401042
     0.8366539217056732    0.3926163034120612    0.3926186032195793
     0.8018984969329043    0.8019005411498582    0.2757538342724715
     0.2757643656971884    0.8018941705003053    0.8018962868444660
     0.6200506406317620    0.6200512637782372    0.1491823336208930
     0.6200534337986831    0.1491825384352140    0.6200493035619330
     0.1491810946698995    0.6200534649438412    0.6200505358852436
     0.3926162231390899    0.8366526162208773    0.3926192887819440
     0.3926170040720288    0.3926156453670243    0.8366613247566835
     0.8018951112200050    0.2757643034721848    0.8018953298384917
     0.7316981304034248    0.1884712026052495    0.1884649842117247

  0.00000000E+00  0.00000000E+00  0.00000000E+00
  0.00000000E+00  0.00000000E+00  0.00000000E+00
  0.00000000E+00  0.00000000E+00  0.00000000E+00
  0.00000000E+00  0.00000000E+00  0.00000000E+00
  0.00000000E+00  0.00000000E+00  0.00000000E+00
  0.00000000E+00  0.00000000E+00  0.00000000E+00
  0.00000000E+00  0.00000000E+00  0.00000000E+00
  0.00000000E+00  0.00000000E+00  0.00000000E+00
  0.00000000E+00  0.00000000E+00  0.00000000E+00
  0.00000000E+00  0.00000000E+00  0.00000000E+00
  0.00000000E+00  0.00000000E+00  0.00000000E+00
  0.00000000E+00  0.00000000E+00  0.00000000E+00
  0.00000000E+00  0.00000000E+00  0.00000000E+00
  0.00000000E+00  0.00000000E+00  0.00000000E+00
  0.00000000E+00  0.00000000E+00  0.00000000E+00
  0.00000000E+00  0.00000000E+00  0.00000000E+00
  0.00000000E+00  0.00000000E+00  0.00000000E+00
  0.00000000E+00  0.00000000E+00  0.00000000E+00
  0.00000000E+00  0.00000000E+00  0.00000000E+00
