System
1.0
9.698050620688456 -2.9358135061956507 -0.0059604542370813
9.698049896820038 2.9358111177349624 -0.005960310927679
8.812392430694873 -9.582287362e-07 5.001293543439547
Rb Li Fe F 
4 1 2 12 
direct
0.2842352171369781 0.2842353039656063 0.2842353974591076 Rb
0.1277202500275811 0.1277201796877124 0.1277202586413928 Rb
0.8722797843756925 0.8722797929478188 0.8722797166080116 Rb
0.7157647582846505 0.7157647378924163 0.7157645663730456 Rb
0.595472902849009 0.5954728934141496 0.595472920158502 Li
0.5000000011496454 0.4999999964325161 0.4999999924878981 Fe
-2.8041882e-09 2.17923561e-08 -4.3666828e-09 Fe
0.1979971060201689 0.197997185875716 0.720571421284788 F
0.1979970870391244 0.7205715035936001 0.1979971122170306 F
0.8438714894743828 0.3903495326984566 0.3903494528465475 F
0.8020028782517624 0.802002857628231 0.2794285668066598 F
0.27942856347491 0.8020028308094729 0.8020028699308012 F
0.6096505645148831 0.60965047866316 0.1561284118645055 F
0.6096504886162624 0.1561284007183162 0.6096506054769105 F
0.156128506453082 0.6096504488660273 0.6096505855263052 F
0.3903494892366112 0.8438715857039474 0.3903494081898789 F
0.3903494709953721 0.3903494487175256 0.8438715909833026 F
0.8020029286285887 0.2794285553755756 0.8020028401639673 F
0.7205713887096249 0.1979971344730344 0.1979971928447573 F
