System                                  
   1.0000000000000000     
     5.9509686365586525   -0.0412095621802280   -0.0612098416374793
    -2.4974119779919794    5.3995425396557053    0.0602438328391101
    -2.4950709513911371   -2.1852502845590140    4.9334442423513840
  Sr              Ge              S             
     1     1     4
Direct
     0.0003933688237720    0.0003130863135000    0.0000873253812053
    -0.0010600820363997    0.4991061336023064    0.4998172153884580
     1.0003516693625443    0.5209647707539479    0.1279107833342671
     0.6069185517107857    0.4798960298767995    0.4796221342786764
     0.0003310428512119    0.1273783160924001    0.5205166127591134
     0.3930654492880729    0.8723416633610388    0.8720459288582819

  0.00000000E+00  0.00000000E+00  0.00000000E+00
  0.00000000E+00  0.00000000E+00  0.00000000E+00
  0.00000000E+00  0.00000000E+00  0.00000000E+00
  0.00000000E+00  0.00000000E+00  0.00000000E+00
  0.00000000E+00  0.00000000E+00  0.00000000E+00
  0.00000000E+00  0.00000000E+00  0.00000000E+00
