System
1.0
11.400938747708212 -0.127046185305991 -0.2333408100202317
-5.717220176732502 9.997921982161543 0.0770862630575056
0.0362140596339119 0.0921245990614989 9.263612084811271
Li Mn Co Ni O 
3 12 8 12 64 
direct
0.3323764099399451 0.1622681623648524 0.4032667741746788 Li
0.3318358984857534 0.6619392885750334 0.4032077996846442 Li
0.8324684258544565 0.1677801696842562 0.4028236633243988 Li
0.0852601841755812 0.4135948308503924 0.2095059676280124 Mn
0.0849473408167631 0.9138578626569651 0.2098142992861567 Mn
0.585593374190438 0.4199636066354971 0.2115635780031342 Mn
0.585335191136031 0.9202859069969819 0.2120623528389216 Mn
0.0851988608480205 0.1656033861385081 0.2113521681902392 Mn
0.0852868215861722 0.6660817659122537 0.2100700689112382 Mn
0.5848747736242832 0.1723300981503343 0.2082180907358104 Mn
0.5847848129521837 0.6720284110325114 0.2080667996111014 Mn
0.1663044887899056 0.0817119697864455 0.7141403952572293 Mn
0.1664525095066431 0.5818825796008429 0.7124642051467933 Mn
0.6664526912476116 0.0821897846779884 0.7125556182831889 Mn
0.6656583887048109 0.5822153973674352 0.7128251901991896 Mn
0.1683688644168641 0.3293928272102535 0.4867097934366921 Co
0.1685246894709525 0.8288949231083929 0.4859854556825502 Co
0.66825666869412 0.3369600737016719 0.4861232641790666 Co
0.6664327100336583 0.8352489174595352 0.4888379048964941 Co
0.3413873195418847 0.1747774669764801 0.9779426508408812 Co
0.3409228450945465 0.6741306920822272 0.9778401050021034 Co
0.8405148014012509 0.1657222761205911 0.978198551300457 Co
0.8394057505110237 0.6695402999383516 0.9789878531285839 Co
0.418345785753196 0.0866839887172022 0.7126869233921908 Ni
0.4178692855560869 0.5864624853233774 0.7125558454311328 Ni
0.9143570874935237 0.0813276999426548 0.7148175110761992 Ni
0.9155766608959374 0.5843430310756198 0.7119665255540988 Ni
0.3327645105604031 0.4158185105578248 0.2070764435371824 Ni
0.332708514247988 0.9165249590829968 0.2068665549947219 Ni
0.8329877493712651 0.4179936782816199 0.2060944137942537 Ni
0.832318210020149 0.9175244614401898 0.2081249852076706 Ni
0.4138076002623912 0.3318838824016537 0.7122035913191159 Ni
0.4140004196116326 0.8317757447348179 0.7116737465186034 Ni
0.9183632778085211 0.3307316695103073 0.7113886314550019 Ni
0.9154071301554467 0.8317141127772613 0.713843319813966 Ni
0.1715822317805802 0.0849092478825874 0.1059024370356953 O
0.1721624261829058 0.5850041521554046 0.1051137719318915 O
0.6718984873914879 0.0885752252039893 0.1060527456377384 O
0.6719838286089559 0.5890651024295526 0.1052447108405094 O
0.4178958716054818 0.3323795648282031 0.0975367004359565 O
0.4180872861074892 0.8324162228102642 0.0982358837571665 O
0.919414649559874 0.3245071248948764 0.0947316408948348 O
0.9177074412783484 0.8249637292375308 0.0964796581320865 O
0.3342748620143688 0.1698330727806005 0.61142789951751 O
0.3351081094343966 0.6698977711699755 0.6107456254704049 O
0.8351440097259247 0.164825856062144 0.611072697880026 O
0.8345526267515452 0.6698797296522151 0.61102759510857 O
0.2648409321827702 0.0272163859130814 0.8444256536631303 O
0.264379873573001 0.5266945846963255 0.8436133775328608 O
0.7615120328416429 0.0195803921805561 0.8411935851873268 O
0.7619689144416204 0.5238004142910478 0.8423876461203361 O
0.2621427717066639 0.2399776869572566 0.8395664514978511 O
0.2618703068270027 0.7395265335651751 0.8392096742978669 O
0.7647269086450591 0.2353946033105725 0.8417044130156913 O
0.7628944705606943 0.7384724173293473 0.8414578917243294 O
0.3213829718261161 0.4071005917903884 0.5981977794680511 O
0.3206098544046109 0.9067387516184504 0.5977927030351624 O
0.8183368062509805 0.4112897693281226 0.598112825251277 O
0.831344497677298 0.9168739376393117 0.5972312135359102 O
0.2328714618470863 0.2506889854314883 0.348313446651157 O
0.2332749756402087 0.7511726231247849 0.3472758409565634 O
0.7368097071142806 0.2615721092279898 0.3436374195236422 O
0.7362402642487456 0.7609708009667674 0.3440146688523681 O
0.0198262502634227 0.2573519162592893 0.337849633517918 O
0.0198417591603493 0.7569450326386881 0.3373963394909116 O
0.5194587289090385 0.2613395299066119 0.3370147769044188 O
0.5195123841971402 0.7611676972156771 0.3380924352182899 O
0.0789208262781832 0.1604217930264862 0.5995507148779837 O
0.0801487696227648 0.6607074173181721 0.5962961674480571 O
0.5830942088782524 0.1648825082024135 0.5983652498507968 O
0.5838824217953946 0.6675042753386333 0.5998558465951823 O
0.9962441580647239 0.9961897895733077 0.8124566211002866 O
0.9975695552063514 0.4975335116512938 0.8090190410472765 O
0.4972536799851348 0.9965661964405339 0.8093573312866504 O
0.4967420577850897 0.4966296999616272 0.8098034130009083 O
0.9985045692655926 0.9951883005276942 0.3075656528966242 O
0.998713544567796 0.4955292438857237 0.3061494516380542 O
0.4978752436820604 0.0018545897030592 0.3067400263502232 O
0.4982059037128894 0.5015812242508396 0.3064263255014992 O
0.1686368732679513 0.3323504154105181 0.1080820895887186 O
0.1686258726461892 0.8330794374545897 0.1076317284690656 O
0.6680101048279342 0.3391524753697504 0.1072711346027225 O
0.667858302030818 0.839311978468971 0.108202665100679 O
0.4812718758137388 0.2513439278772677 0.8458387399474133 O
0.4807080713961257 0.7501048378835302 0.8464769299727475 O
0.9808320575872372 0.2295365808602033 0.845680747401834 O
0.9801405215343458 0.7428235996048516 0.8445578633458891 O
0.0836997439521402 0.417617238447772 0.5992384891829813 O
0.0817321710434507 0.9168400386013488 0.6022460989124078 O
0.5791729021933599 0.4189858788795497 0.5986041126002266 O
0.5799702652798019 0.9174613907235872 0.5989447309926013 O
0.237431038115008 0.4750206287661586 0.3448980730206789 O
0.2368389357474737 0.9751099413175828 0.3451587954048673 O
0.7336896314910288 0.4819247100230808 0.348525996192985 O
0.7330041479126861 0.9807938897519969 0.3500493884410418 O
0.4198431179463066 0.0976987057118234 0.0948637620907278 O
0.4195259909063849 0.5974028052520646 0.0952164797392939 O
0.9180480898925147 0.0879347215023739 0.098563075840391 O
0.9194190171504534 0.5898613692043077 0.0958454638771086 O
