System                                  
   1.0000000000000000     
    11.3414376695480694   -0.0647836135991604   -0.2488026780888000
    -5.6337010728795018    9.9288513910399363    0.0710431474792025
     0.0222419509143507    0.0786910209071783    9.2036924770866690
  Li              Mn              Co              Ni              O             
    14    12     8    12    64
Direct
     0.1698532183862462    0.3387176178765106    0.8976353643364617
     0.1717831458189773    0.8381328772568873    0.8969405344971119
     0.6689562670811550    0.3386521132480291    0.8917485351227094
     0.6703926372565748    0.8392308980649041    0.8945963582170677
     0.4973871057116760    0.5002730241136426    0.9911794092036337
     0.9976997948346292    1.0010771278954738    0.9953018335840496
     0.4934145604088571    0.4897436936449983    0.4962705990578070
     0.4944388402147536    0.9955144360006392    0.4934104906470785
     0.9964160212898350    0.4944000348177790    0.4930273894746602
     0.9927555767972630    0.9941919412086918    0.4969443459058450
     0.3329285098538706    0.1634302517286053    0.4009827155387122
     0.3312032310415602    0.6643636258259937    0.4026502522910262
     0.8301825187979895    0.1629146541281407    0.4002996647714494
     0.8317515012458122    0.6635903021040336    0.3979861238129978
     0.0859315282386625    0.4176957981983052    0.2090998065212330
     0.0879870892680676    0.9163928613171382    0.2140390714647127
     0.5859251167753826    0.4151262343598227    0.2109512230865104
     0.5871156214612596    0.9166973504009167    0.2073070795317643
     0.0882267216959192    0.1726364685511202    0.2141114687356797
     0.0854266077904180    0.6692799547801933    0.2064114284374342
     0.5857081356092121    0.1688136987247050    0.2054270210189707
     0.5861656574821078    0.6721450233333390    0.2125419420214266
     0.1672849826170743    0.0819209266714927    0.7175519822589796
     0.1665902317691857    0.5816699446705502    0.7199455166677292
     0.6655808971925805    0.0836610268295624    0.7185441146870614
     0.6710795482855324    0.5817112204156547    0.7080470332859056
     0.1645158159105694    0.3292639781326931    0.4843065656777922
     0.1661810959004560    0.8260192969631369    0.4826209761807107
     0.6706595747216216    0.3301755318971948    0.4803949048250302
     0.6625068112411017    0.8264031781271750    0.4837669224017957
     0.3388468951077758    0.1697818602570291    0.9825888089830043
     0.3393925519373641    0.6743058985966448    0.9847051660019527
     0.8415027642519315    0.1759409674110189    0.9846068815634823
     0.8432577262498410    0.6735527519158406    0.9818902734592083
     0.4156255167749951    0.0833085276548334    0.7168083201379286
     0.4181818172102141    0.5870765320099338    0.7124441026919506
     0.9156702716631674    0.0857947177019779    0.7133367063259362
     0.9193928467254076    0.5848334498734037    0.7164130623680544
     0.3315133621258175    0.4185447735434922    0.2125786671504139
     0.3320217886991602    0.9148353509799092    0.2038704010381768
     0.8311455600744421    0.4147920505014532    0.2022421723915839
     0.8312623775739520    0.9169877365790100    0.2145837085068829
     0.4105711647837439    0.3289788193689527    0.7129868553360925
     0.4137471585246129    0.8317120475887269    0.7192052018070216
     0.9142410976533696    0.3317267194472889    0.7184043687124078
     0.9139774811541280    0.8294357064571679    0.7128547056986827
     0.1680553155576294    0.0843621334988302    0.1027317958791020
     0.1704218407887250    0.5862750760882465    0.1016099809639585
     0.6710766130641127    0.0858733095973759    0.0994778979491860
     0.6670164094009710    0.5851960860206807    0.0992759859008167
     0.4222275318996564    0.3361031723670286    0.0928762388602769
     0.4150600930732735    0.8279317545704120    0.0951084210722560
     0.9181019036937068    0.3316810944776610    0.0937496838803838
     0.9237835278614831    0.8353312283347594    0.0946373914172493
     0.3304328799882688    0.1623138305547370    0.6113526391877045
     0.3337721023104032    0.6701164563480203    0.6141225773225929
     0.8336024751872884    0.1703333676611432    0.6133592896301259
     0.8393873633702291    0.6694479914826456    0.6094677572516650
     0.2586318195929247    0.0210326983617117    0.8485563382345789
     0.2644914352895482    0.5252723071862166    0.8487354484446543
     0.7648111204739587    0.0262003590589579    0.8471549738127265
     0.7638166119064008    0.5246409582903169    0.8442133851738173
     0.2479169172293710    0.2301991868593508    0.8517712793570477
     0.2600855662152974    0.7417992678550848    0.8420735979313594
     0.7605298832721877    0.2433342788675818    0.8407789804299526
     0.7627279607192778    0.7418598024791567    0.8381468663450915
     0.3297743435466440    0.4103104597832240    0.5944066428187936
     0.3332413758539245    0.9094668319086996    0.5970859399133792
     0.8361813469044116    0.4106156901677071    0.5950680814312825
     0.8296360605319720    0.9080976736959411    0.5945820236826732
     0.2386397048991158    0.2594365574132884    0.3467881904708021
     0.2319247473806008    0.7497773780757983    0.3442757128113227
     0.7333363612686226    0.2500435324006507    0.3408952254351424
     0.7311910467091604    0.7509489818443653    0.3484151797362653
     0.0167300948825373    0.2589658474229102    0.3365234309319094
     0.0182854208997082    0.7575442384803587    0.3366942392773362
     0.5192522527210627    0.2587054112042668    0.3354418890020366
     0.5152034114845577    0.7583228953592295    0.3353698353247458
     0.0807736666470177    0.1605626682138635    0.5985248684706080
     0.0822237375804220    0.6585918232024510    0.5996703245646320
     0.5828906544553022    0.1611492178684245    0.5985214617172854
     0.5808616827846358    0.6590682503666061    0.5935967935819487
     0.9941600621208351    0.9945494308489738    0.8066768543342303
     0.9977029933580497    0.4964230996262509    0.8187657818479884
     0.4966709251466169    0.9975114538614090    0.8183927481032406
     0.5018001995704009    0.5010120051209139    0.8031802176600711
     0.0112098302935621    0.0056770548804669    0.3096148597696057
     0.9962355574853610    0.4984531072337015    0.3011729186032703
     0.4980878625294464   -0.0012613256582282    0.3012232615964238
     0.5007999740712680    0.4994324633830806    0.3064406919190549
     0.1692060269943291    0.3372863025274531    0.1062213184857649
     0.1682565170528431    0.8344433226398118    0.1032630085230329
     0.6677062323753556    0.3347639934182555    0.1010564022343139
     0.6600848509699060    0.8302248979836457    0.1006183266528898
     0.4799461545257356    0.2487785302717481    0.8480921145120757
     0.4821448234414800    0.7499467218548029    0.8497666228548957
     0.9826363330445922    0.2505988637054873    0.8497028431183650
     0.9851923235033350    0.7523734701202622    0.8471700484139371
     0.0799053386968792    0.4155723867926046    0.6089439293706900
     0.0804386856816088    0.9148640859718599    0.6032758310084757
     0.5947595072832454    0.4219298122333616    0.5960497626321218
     0.5784091843860096    0.9159679889555336    0.6091412227804444
     0.2312553977079527    0.4797425119528646    0.3498098535433335
     0.2399723697225579    0.9762308976308247    0.3458666521757364
     0.7406549732690828    0.4775274792447912    0.3407130044189514
     0.7302235915644880    0.9778697875673259    0.3492436476327825
     0.4196496184219399    0.0946578175444907    0.0923858117402210
     0.4211896779484037    0.5879241990467923    0.0924420605379591
     0.9256707272745551    0.0947335944695799    0.0929402153070870
     0.9198823051553368    0.5956080416128858    0.0912502699370642

  0.00000000E+00  0.00000000E+00  0.00000000E+00
  0.00000000E+00  0.00000000E+00  0.00000000E+00
  0.00000000E+00  0.00000000E+00  0.00000000E+00
  0.00000000E+00  0.00000000E+00  0.00000000E+00
  0.00000000E+00  0.00000000E+00  0.00000000E+00
  0.00000000E+00  0.00000000E+00  0.00000000E+00
  0.00000000E+00  0.00000000E+00  0.00000000E+00
  0.00000000E+00  0.00000000E+00  0.00000000E+00
  0.00000000E+00  0.00000000E+00  0.00000000E+00
  0.00000000E+00  0.00000000E+00  0.00000000E+00
  0.00000000E+00  0.00000000E+00  0.00000000E+00
  0.00000000E+00  0.00000000E+00  0.00000000E+00
  0.00000000E+00  0.00000000E+00  0.00000000E+00
  0.00000000E+00  0.00000000E+00  0.00000000E+00
  0.00000000E+00  0.00000000E+00  0.00000000E+00
  0.00000000E+00  0.00000000E+00  0.00000000E+00
  0.00000000E+00  0.00000000E+00  0.00000000E+00
  0.00000000E+00  0.00000000E+00  0.00000000E+00
  0.00000000E+00  0.00000000E+00  0.00000000E+00
  0.00000000E+00  0.00000000E+00  0.00000000E+00
  0.00000000E+00  0.00000000E+00  0.00000000E+00
  0.00000000E+00  0.00000000E+00  0.00000000E+00
  0.00000000E+00  0.00000000E+00  0.00000000E+00
  0.00000000E+00  0.00000000E+00  0.00000000E+00
  0.00000000E+00  0.00000000E+00  0.00000000E+00
  0.00000000E+00  0.00000000E+00  0.00000000E+00
  0.00000000E+00  0.00000000E+00  0.00000000E+00
  0.00000000E+00  0.00000000E+00  0.00000000E+00
  0.00000000E+00  0.00000000E+00  0.00000000E+00
  0.00000000E+00  0.00000000E+00  0.00000000E+00
  0.00000000E+00  0.00000000E+00  0.00000000E+00
  0.00000000E+00  0.00000000E+00  0.00000000E+00
  0.00000000E+00  0.00000000E+00  0.00000000E+00
  0.00000000E+00  0.00000000E+00  0.00000000E+00
  0.00000000E+00  0.00000000E+00  0.00000000E+00
  0.00000000E+00  0.00000000E+00  0.00000000E+00
  0.00000000E+00  0.00000000E+00  0.00000000E+00
  0.00000000E+00  0.00000000E+00  0.00000000E+00
  0.00000000E+00  0.00000000E+00  0.00000000E+00
  0.00000000E+00  0.00000000E+00  0.00000000E+00
  0.00000000E+00  0.00000000E+00  0.00000000E+00
  0.00000000E+00  0.00000000E+00  0.00000000E+00
  0.00000000E+00  0.00000000E+00  0.00000000E+00
  0.00000000E+00  0.00000000E+00  0.00000000E+00
  0.00000000E+00  0.00000000E+00  0.00000000E+00
  0.00000000E+00  0.00000000E+00  0.00000000E+00
  0.00000000E+00  0.00000000E+00  0.00000000E+00
  0.00000000E+00  0.00000000E+00  0.00000000E+00
  0.00000000E+00  0.00000000E+00  0.00000000E+00
  0.00000000E+00  0.00000000E+00  0.00000000E+00
  0.00000000E+00  0.00000000E+00  0.00000000E+00
  0.00000000E+00  0.00000000E+00  0.00000000E+00
  0.00000000E+00  0.00000000E+00  0.00000000E+00
  0.00000000E+00  0.00000000E+00  0.00000000E+00
  0.00000000E+00  0.00000000E+00  0.00000000E+00
  0.00000000E+00  0.00000000E+00  0.00000000E+00
  0.00000000E+00  0.00000000E+00  0.00000000E+00
  0.00000000E+00  0.00000000E+00  0.00000000E+00
  0.00000000E+00  0.00000000E+00  0.00000000E+00
  0.00000000E+00  0.00000000E+00  0.00000000E+00
  0.00000000E+00  0.00000000E+00  0.00000000E+00
  0.00000000E+00  0.00000000E+00  0.00000000E+00
  0.00000000E+00  0.00000000E+00  0.00000000E+00
  0.00000000E+00  0.00000000E+00  0.00000000E+00
  0.00000000E+00  0.00000000E+00  0.00000000E+00
  0.00000000E+00  0.00000000E+00  0.00000000E+00
  0.00000000E+00  0.00000000E+00  0.00000000E+00
  0.00000000E+00  0.00000000E+00  0.00000000E+00
  0.00000000E+00  0.00000000E+00  0.00000000E+00
  0.00000000E+00  0.00000000E+00  0.00000000E+00
  0.00000000E+00  0.00000000E+00  0.00000000E+00
  0.00000000E+00  0.00000000E+00  0.00000000E+00
  0.00000000E+00  0.00000000E+00  0.00000000E+00
  0.00000000E+00  0.00000000E+00  0.00000000E+00
  0.00000000E+00  0.00000000E+00  0.00000000E+00
  0.00000000E+00  0.00000000E+00  0.00000000E+00
  0.00000000E+00  0.00000000E+00  0.00000000E+00
  0.00000000E+00  0.00000000E+00  0.00000000E+00
  0.00000000E+00  0.00000000E+00  0.00000000E+00
  0.00000000E+00  0.00000000E+00  0.00000000E+00
  0.00000000E+00  0.00000000E+00  0.00000000E+00
  0.00000000E+00  0.00000000E+00  0.00000000E+00
  0.00000000E+00  0.00000000E+00  0.00000000E+00
  0.00000000E+00  0.00000000E+00  0.00000000E+00
  0.00000000E+00  0.00000000E+00  0.00000000E+00
  0.00000000E+00  0.00000000E+00  0.00000000E+00
  0.00000000E+00  0.00000000E+00  0.00000000E+00
  0.00000000E+00  0.00000000E+00  0.00000000E+00
  0.00000000E+00  0.00000000E+00  0.00000000E+00
  0.00000000E+00  0.00000000E+00  0.00000000E+00
  0.00000000E+00  0.00000000E+00  0.00000000E+00
  0.00000000E+00  0.00000000E+00  0.00000000E+00
  0.00000000E+00  0.00000000E+00  0.00000000E+00
  0.00000000E+00  0.00000000E+00  0.00000000E+00
  0.00000000E+00  0.00000000E+00  0.00000000E+00
  0.00000000E+00  0.00000000E+00  0.00000000E+00
  0.00000000E+00  0.00000000E+00  0.00000000E+00
  0.00000000E+00  0.00000000E+00  0.00000000E+00
  0.00000000E+00  0.00000000E+00  0.00000000E+00
  0.00000000E+00  0.00000000E+00  0.00000000E+00
  0.00000000E+00  0.00000000E+00  0.00000000E+00
  0.00000000E+00  0.00000000E+00  0.00000000E+00
  0.00000000E+00  0.00000000E+00  0.00000000E+00
  0.00000000E+00  0.00000000E+00  0.00000000E+00
  0.00000000E+00  0.00000000E+00  0.00000000E+00
  0.00000000E+00  0.00000000E+00  0.00000000E+00
  0.00000000E+00  0.00000000E+00  0.00000000E+00
  0.00000000E+00  0.00000000E+00  0.00000000E+00
  0.00000000E+00  0.00000000E+00  0.00000000E+00
  0.00000000E+00  0.00000000E+00  0.00000000E+00
