System
1.0
11.34143766954807 -0.0647836135991604 -0.2488026780888
-5.633701072879502 9.928851391039936 0.0710431474792025
0.0222419509143507 0.0786910209071783 9.203692477086669
Li Mn Co Ni O 
14 12 8 12 64 
direct
0.1701044408754455 0.3378473682886311 0.896780301036681 Li
0.1738313118108326 0.83875220970642 0.8978919420817163 Li
0.667475637472028 0.337948824274853 0.8915406133416052 Li
0.6672741921014951 0.8381156971562745 0.895089821790773 Li
0.4970284497004306 0.4998852259084084 0.9919400244957675 Li
0.9965174832129245 0.999842064668481 0.9958110015191046 Li
0.4940280352098177 0.4902173268041523 0.4965728798387205 Li
0.4938778931197619 0.9954127075700432 0.4937923711205744 Li
0.9964674248143615 0.494497755304133 0.4959501422805619 Li
0.993757614553403 0.9950362670828187 0.4956574465734019 Li
0.3333829810092914 0.1637777399074835 0.4001998839075664 Li
0.3322973361603471 0.6647834244320593 0.4019520716701983 Li
0.8289275778583486 0.1613105495110894 0.3995313955173942 Li
0.830732807672845 0.664339789053517 0.3977392910712281 Li
0.0855746417841855 0.4158301284087587 0.2164833156446588 Mn
0.0893330501449192 0.9166027839194733 0.2135186722682595 Mn
0.5859203466819068 0.4152018757735831 0.2110736395384085 Mn
0.5841494261146476 0.9153971347689671 0.2065592782799498 Mn
0.0886942478616015 0.1729843961211297 0.2129018615403682 Mn
0.0858375878930002 0.670401231545243 0.215080084403677 Mn
0.5862154169578135 0.1695420285227483 0.2049326193303573 Mn
0.5853559693207291 0.6714413672239545 0.2130418075241961 Mn
0.1679413042964605 0.0824235257187703 0.71830058585832 Mn
0.1704219390894413 0.5829103662117406 0.7152741569323566 Mn
0.6645034531570436 0.082413640067115 0.7181487945078258 Mn
0.6704123477014071 0.5824496864208014 0.7072554681707072 Mn
0.1648369801955674 0.3287922717057897 0.4857740854524782 Co
0.16584440188229 0.8271819967237254 0.4848881780593293 Co
0.6697216585828188 0.3296310947427382 0.4809951884604405 Co
0.663708574447776 0.8270810942540627 0.4829189873731209 Co
0.3405071904588023 0.1707273610374688 0.9825817897308893 Co
0.3359062996990886 0.6706044977002731 0.9828998419644456 Co
0.8396139968668825 0.1733407281370139 0.984525108167101 Co
0.8424754563727804 0.6750616550033652 0.9813521913381436 Co
0.4151733861834072 0.082811205202976 0.7167763469555376 Ni
0.4186856551582468 0.5875918781821043 0.712743744270933 Ni
0.9155611308697034 0.0851441790545015 0.7130111738786037 Ni
0.9190083532812164 0.5865736299577847 0.7116595489218999 Ni
0.3319309804042526 0.4196251425574939 0.2134202115873813 Ni
0.3333643493322818 0.9138951927351999 0.2057234334546847 Ni
0.8297223845915598 0.4143202189373441 0.2094865722558198 Ni
0.82992151727412 0.9165580372807582 0.2139586436783056 Ni
0.4105680266128081 0.3291669694820105 0.7132408361394875 Ni
0.4138718197881341 0.8313543805731434 0.7196947676486208 Ni
0.9134202082352945 0.3294255705859195 0.7141476780006409 Ni
0.9142070451974711 0.8304157507164592 0.712596418630243 Ni
0.1676726386284463 0.0839387590421933 0.1015059513211105 O
0.1645801769738812 0.5832497636890208 0.1036341091026047 O
0.6747710837806515 0.0888275757959224 0.0996525281852731 O
0.6680531754148663 0.5854987107204723 0.0986238745048546 O
0.4233447221234284 0.3357386770761838 0.0927003007232601 O
0.4191893375205865 0.8375007139836528 0.093223942969166 O
0.9206758289737625 0.336557598874423 0.0940561479201489 O
0.9214041090017696 0.8328024799286821 0.0954429129222347 O
0.3302182445648409 0.1620400270565963 0.6111150203824653 O
0.3358617124013288 0.6707797645737897 0.612648869095291 O
0.8328838285292908 0.1685232760938668 0.6123454673599109 O
0.83857123600141 0.6712387926422312 0.6080954099950209 O
0.2584959306272051 0.0211181575520541 0.8492670378795174 O
0.2614030397717073 0.5228378355932917 0.8458165795347107 O
0.7637969102491583 0.0248526109222292 0.8471802253675967 O
0.7662744585456348 0.52557782442288 0.8423352317032423 O
0.248411551575522 0.2306585778258424 0.8516042084850529 O
0.2584257189502022 0.7401290748128845 0.8394518180517894 O
0.7613506472376851 0.2436354207508914 0.8400341595683799 O
0.7622931358368281 0.7428477803415936 0.8377711208135186 O
0.3306830717344818 0.4106986019063888 0.5942233268937908 O
0.3331447495499898 0.9100705559814803 0.5973290663143832 O
0.8346139863551547 0.4092979255618848 0.5932598700798424 O
0.8308537477605842 0.9090728497437417 0.593942199960634 O
0.2409065001873486 0.2615645979269869 0.3439911735145837 O
0.2313373705163016 0.748524745187652 0.3493314394797359 O
0.7331179838550862 0.2501107823277192 0.3423669143714772 O
0.7320752217864503 0.7520042394963189 0.3474980427928921 O
0.0165005172672576 0.2566914484249524 0.3388214056204522 O
0.0179233013356081 0.7593235335828186 0.3390046483878313 O
0.5190963137292431 0.2586116287074346 0.3351784166900165 O
0.5155080253691764 0.7584031806639026 0.3363166776817115 O
0.0816412312691052 0.1604981140128699 0.5984918183499349 O
0.081513252597788 0.6599411327730837 0.5971519838529168 O
0.5828355274969313 0.1609241172532644 0.5987859227295573 O
0.5822304362842541 0.6595470416686005 0.593162832078151 O
0.9944032417946282 0.9950153687538872 0.8073171053760684 O
0.9983938456716811 0.4962854390790388 0.8065000749222265 O
0.4964672423152721 0.9973625233087764 0.8186740256850559 O
0.5020153371637083 0.5017792934827504 0.8038071003512934 O
0.0116108571431421 1.0057305905657938 0.3078535378334877 O
0.9954642444346655 0.4976060876185467 0.3069378623650151 O
0.5001396524812952 0.00098213333212 0.3023277418909032 O
0.5025776953873791 0.4995471999917249 0.3074543809845592 O
0.1673169500374706 0.3380692724453694 0.1067389555140979 O
0.1675133366976785 0.8315879616002818 0.1048348695311127 O
0.6694099666014616 0.3361719094053052 0.1020630833464787 O
0.6575753911088879 0.828640392390114 0.1003271965403854 O
0.4803296698822803 0.2487572890180762 0.8472890592136583 O
0.481194655403435 0.7486493354607954 0.8488219964451625 O
0.9816515653263026 0.2501502553313099 0.8491812349471002 O
0.985148259187183 0.7519462574091756 0.8470415945261038 O
0.0802107029365757 0.4139259893629037 0.6047663705866004 O
0.0808272101241983 0.9158000615654425 0.6033480675475419 O
0.5944622479110234 0.4217549851263726 0.5972070306871139 O
0.5785422349838413 0.916350431445107 0.6088686185569072 O
0.2308870468578452 0.4800680096475748 0.3528585073840186 O
0.2421735952953403 0.9765397961035382 0.3432954254862369 O
0.7394236514149877 0.4778967017950571 0.3435378959530656 O
0.7305593195371785 0.9776936755303353 0.3482187088843848 O
0.4208150894032056 0.0967024799890213 0.0923044358896705 O
0.420067771850978 0.5849511125321224 0.0958585819753243 O
0.9244732954162306 0.0944048155753976 0.0926739595809369 O
0.9229209360680055 0.5925315596581672 0.0911584304648356 O
