System                                  
   1.0000000000000000     
     6.0880407374211476   -0.0091325906554915   -0.0142053315693391
    -2.5248598320618965    5.5397960576373739    0.0141954173735940
    -2.5248603831305938   -2.2864835425288779    5.0459439651615439
  Sr              Li              Ge              S             
     1     2     1     4
Direct
    -0.0000000333398594    0.0000000661538338   -0.0000000009804836
     0.5000001808818257    0.7500000571941455    0.2499999766283784
     0.5000000552117370    0.2499999967535332    0.7500001668951609
    -0.0000001852624401    0.4999998943058666    0.4999998275910139
     1.0000000115430447    0.5334864691810249    0.1395341997715626
     0.6060475019881946    0.4665132572612472    0.4665132668423470
    -0.0000002897974726    0.1395340303820091    0.5334865182982133
     0.3939527587749631    0.8604662287683468    0.8604660449538076

  0.00000000E+00  0.00000000E+00  0.00000000E+00
  0.00000000E+00  0.00000000E+00  0.00000000E+00
  0.00000000E+00  0.00000000E+00  0.00000000E+00
  0.00000000E+00  0.00000000E+00  0.00000000E+00
  0.00000000E+00  0.00000000E+00  0.00000000E+00
  0.00000000E+00  0.00000000E+00  0.00000000E+00
  0.00000000E+00  0.00000000E+00  0.00000000E+00
  0.00000000E+00  0.00000000E+00  0.00000000E+00
