System
1.0
6.061002677625987 -0.0044648104060203 -0.0069444781077719
-2.5094330737514734 5.517111161738863 0.0069444788222524
-2.509433075164252 -2.2836643096523686 5.022295019216495
Sr Li Ge S 
1 2 1 4 
direct
0.0 0.0 0.0 Sr
0.49999999999999994 0.75 0.25000000000000006 Li
0.5 0.25000000000000006 0.7500000000000001 Li
3.7576945700967305e-17 0.5 0.5000000000000001 Ge
-3.305080733575505e-13 0.5340387082543516 0.13788644977470652 S
0.6038477415205065 0.4659612917455123 0.46596129174534157 S
3.7696781751810503e-13 0.13788644977555412 0.5340387082548331 S
0.39615225847944696 0.8621135502245822 0.8621135502251188 S
