System                                  
   1.0000000000000000     
    10.3626541995670749    0.6680397148495248    5.8900744478487770
     3.5100475804119782   10.0732086450450389    5.5779958001142633
    -0.2770176937874708    0.4281704396772118   11.5097365705302366
  Li              Mn              O             
    16    32    64
Direct
     0.0688387272790404    0.0688744971180899    0.0561821988040382
     0.0686480816723183    0.0688286923967198    0.5564669697434135
     0.0687910643863241    0.5688623451773973    0.0562524747655256
     0.0686211020753864    0.5688390704814467    0.5564965854793333
     0.5686460525449902    0.0688384083874727    0.0564659754513632
     0.5688467685229394    0.0688755698503374    0.5561897134811674
     0.5686237141783962    0.5688396342867940    0.0564979620079057
     0.5687886983658553    0.5688665636279810    0.5562494373571116
     0.4313506091390028    0.4311779800421801    0.4435412936346755
     0.4311545072369865    0.4311141318130826    0.9438171410337242
     0.4313789757786869    0.9311697745750066    0.4435022260259796
     0.4312101167093761    0.9311313954092350    0.9437388212626551
     0.9311537947001022    0.4311148354742040    0.4438162248184609
     0.9313513922784464    0.4311716084985061    0.9435430408014622
     0.9312089419960390    0.9311190030818335    0.4437536414800006
     0.9313783661385875    0.9311692201632985    0.9435044834074431
     0.2499965921549288    0.2500027150112686    0.9999977544316493
     0.2500028654161895    0.2499989881056078    0.4999968512350460
     0.2499980416215102    0.7500014701615805    0.9999972159119150
     0.2500040963767796    0.7499977518855941    0.4999949972243730
     0.7500016262611648    0.2499971586127236    0.0000010462223430
     0.7499978826842334    0.2500034307620146    0.5000017763971545
     0.7500039309944870    0.7499980409533950    0.9999965157166762
     0.7500014799109811    0.7500025933706768    0.4999963436927868
     0.2500511917706503    0.9999876377320314    0.2499355022619242
     0.2498931253808250    0.0000111756506103    0.7500900614148569
     0.2501049822601866    0.4999907345381867    0.2499085084112554
     0.2499505232880644    0.5000139131501053    0.7500559821181814
     0.7498976771379638    0.0000077377797318    0.2500904793664124
     0.7500516130854092    0.9999856427884540    0.7499407570889839
     0.7499465636488543    0.5000151183144161    0.2500650742505865
     0.7501021503541430    0.4999952558960529    0.7499105800971891
     0.9999973206755243    0.2499981854112648    0.2500046387028655
     0.9999940108602032    0.2499957329944231    0.7500052119726258
     0.0000015857333152    0.7499955647419900    0.2500000859234306
     0.9999985968841879    0.7499924017053275    0.7499956695711699
     0.5000087543119982    0.2499991075859227    0.2499980661883855
     0.5000023123196851    0.2500034977141904    0.7499997499451009
     0.5000019624380901    0.7500046528698762    0.2499988511804357
     0.5000006060366993    0.7500091165241225    0.7499944551596980
     0.2500531930550907    0.2500132393195755    0.2499394506718071
     0.2499458741526915    0.2499887814365056    0.7500574368380521
     0.2499989950485117    0.7500212192797339    0.2499836780953520
     0.2499989284320680    0.7499790794047596    0.7500125578969177
     0.7499447642982481    0.2499873481337856    0.2500633217299884
     0.7500524119728730    0.2500092262461229    0.7499461590774024
     0.7500009413049152    0.7499822879616412    0.2500141581822901
     0.7499994162251746    0.7500239266108758    0.7499797445717926
     0.1384373638442985    0.1379329715625289    0.3502876688284320
     0.1383209434442078    0.1379102479985115    0.8504392626908608
     0.1384442691756634    0.6378662730156485    0.3502978678849906
     0.1383513929764499    0.6379536086012296    0.8503563199483306
     0.6383295527353723    0.1379047198479076    0.3504374604180897
     0.6384342527602994    0.1379350629658336    0.8502896113644188
     0.6383506892189162    0.6379622140845420    0.3503637268930823
     0.6384415177524495    0.6378742300038122    0.8502916140623785
     0.1402044138156999    0.3613391588377716    0.1226425387155837
     0.1401940003176412    0.3613457967088560    0.6226480653183745
     0.1402411444269312    0.8613766464224747    0.1226083277224877
     0.1402352334394713    0.8613472648730335    0.6226265709110517
     0.6402044283211509    0.3613445721761759    0.1226480406333534
     0.6402066682876668    0.3613417689102761    0.6226454417021000
     0.6402329306056678    0.8613497835930547    0.1226294442277886
     0.6402377083661568    0.8613795570609966    0.6226081495144541
     0.3614792348846907    0.1403459466822504    0.1256088478801281
     0.3612960386784458    0.1403798696089625    0.6257944580232322
     0.3614434241057660    0.6403863782199533    0.1256468352254033
     0.3613773977828756    0.6403506281398823    0.6257211614806889
     0.8612994594043851    0.1403810610391314    0.1257933114667791
     0.8614821663036050    0.1403449801303677    0.6256116669805788
     0.8613748346161342    0.6403559391195258    0.1257258013877281
     0.8614451956894786    0.6403917864317187    0.6256460137447389
     0.1380607164553432    0.1383143245231728    0.1233207424414783
     0.1379532718331271    0.1383767783970819    0.6233886724232449
     0.1380030567595835    0.6383766186189451    0.1233269442413632
     0.1379951671114962    0.6383495790845287    0.6233691226675193
     0.6379581698141318    0.1383746535504650    0.1233879805055674
     0.6380631735687495    0.1383166844797730    0.6233214829192731
     0.6379944973839324    0.6383504429739665    0.1233747364021886
     0.6380085073197239    0.6383803010039686    0.6233188696282080
     0.3616768555847990    0.3620957229235340    0.1495585520017418
     0.3615644801273437    0.3620646440868478    0.6497110863629675
     0.3616525167247557    0.8620425938224316    0.1496356422661075
     0.3615578692622957    0.8621330928675868    0.6496995567200711
     0.8615637787204226    0.3620611924077284    0.1497201339146864
     0.8616738981130817    0.3620895705835971    0.6495681920378965
     0.8615577619921667    0.8621326606036908    0.1497036659876571
     0.8616474968846460    0.8620481590916845    0.6496356576812430
     0.3598065339601580    0.1386514079436219    0.3773500934821177
     0.3597934768050078    0.1386688771153815    0.8773535405614372
     0.3597709136739963    0.6386462555361997    0.3773706056578970
     0.3597595868157603    0.6386293427055570    0.8773861262455555
     0.8597947297972570    0.1386655700922366    0.3773586578697130
     0.8597990931700296    0.1386465331442966    0.8773605719697661
     0.8597642998916261    0.6386313649586627    0.3773826515432318
     0.8597689632570111    0.6386478344362518    0.8773650830324061
     0.1387034046610634    0.3596240468750629    0.3742063273225840
     0.1385170816347528    0.3596568172171888    0.8743877031858798
     0.1386241254643434    0.8596501476708566    0.3742753263038525
     0.1385566314341231    0.8596141189450354    0.8743461762626564
     0.6385167083360108    0.3596501383452823    0.3743930036234504
     0.6386968755819636    0.3596218472204109    0.8742141764418452
     0.6385556330658575    0.8596087892682092    0.3743514697999684
     0.6386241417291729    0.8596487258678187    0.8742738772230224
     0.3620494894235895    0.3616211842731470    0.3766077441897102
     0.3619377720282803    0.3616858169030519    0.8766814055003479
     0.3620053586695223    0.8616502510501443    0.3766223543511890
     0.3619943918257264    0.8616220308360487    0.8766742833668618
     0.8619347606903018    0.3616862858765141    0.3766906350431146
     0.8620410222818763    0.3616221364846940    0.8766165993681234
     0.8620014712773433    0.8616174967203140    0.3766798461313681
     0.8620105409698914    0.8616433817276253    0.8766254907719425

  0.00000000E+00  0.00000000E+00  0.00000000E+00
  0.00000000E+00  0.00000000E+00  0.00000000E+00
  0.00000000E+00  0.00000000E+00  0.00000000E+00
  0.00000000E+00  0.00000000E+00  0.00000000E+00
  0.00000000E+00  0.00000000E+00  0.00000000E+00
  0.00000000E+00  0.00000000E+00  0.00000000E+00
  0.00000000E+00  0.00000000E+00  0.00000000E+00
  0.00000000E+00  0.00000000E+00  0.00000000E+00
  0.00000000E+00  0.00000000E+00  0.00000000E+00
  0.00000000E+00  0.00000000E+00  0.00000000E+00
  0.00000000E+00  0.00000000E+00  0.00000000E+00
  0.00000000E+00  0.00000000E+00  0.00000000E+00
  0.00000000E+00  0.00000000E+00  0.00000000E+00
  0.00000000E+00  0.00000000E+00  0.00000000E+00
  0.00000000E+00  0.00000000E+00  0.00000000E+00
  0.00000000E+00  0.00000000E+00  0.00000000E+00
  0.00000000E+00  0.00000000E+00  0.00000000E+00
  0.00000000E+00  0.00000000E+00  0.00000000E+00
  0.00000000E+00  0.00000000E+00  0.00000000E+00
  0.00000000E+00  0.00000000E+00  0.00000000E+00
  0.00000000E+00  0.00000000E+00  0.00000000E+00
  0.00000000E+00  0.00000000E+00  0.00000000E+00
  0.00000000E+00  0.00000000E+00  0.00000000E+00
  0.00000000E+00  0.00000000E+00  0.00000000E+00
  0.00000000E+00  0.00000000E+00  0.00000000E+00
  0.00000000E+00  0.00000000E+00  0.00000000E+00
  0.00000000E+00  0.00000000E+00  0.00000000E+00
  0.00000000E+00  0.00000000E+00  0.00000000E+00
  0.00000000E+00  0.00000000E+00  0.00000000E+00
  0.00000000E+00  0.00000000E+00  0.00000000E+00
  0.00000000E+00  0.00000000E+00  0.00000000E+00
  0.00000000E+00  0.00000000E+00  0.00000000E+00
  0.00000000E+00  0.00000000E+00  0.00000000E+00
  0.00000000E+00  0.00000000E+00  0.00000000E+00
  0.00000000E+00  0.00000000E+00  0.00000000E+00
  0.00000000E+00  0.00000000E+00  0.00000000E+00
  0.00000000E+00  0.00000000E+00  0.00000000E+00
  0.00000000E+00  0.00000000E+00  0.00000000E+00
  0.00000000E+00  0.00000000E+00  0.00000000E+00
  0.00000000E+00  0.00000000E+00  0.00000000E+00
  0.00000000E+00  0.00000000E+00  0.00000000E+00
  0.00000000E+00  0.00000000E+00  0.00000000E+00
  0.00000000E+00  0.00000000E+00  0.00000000E+00
  0.00000000E+00  0.00000000E+00  0.00000000E+00
  0.00000000E+00  0.00000000E+00  0.00000000E+00
  0.00000000E+00  0.00000000E+00  0.00000000E+00
  0.00000000E+00  0.00000000E+00  0.00000000E+00
  0.00000000E+00  0.00000000E+00  0.00000000E+00
  0.00000000E+00  0.00000000E+00  0.00000000E+00
  0.00000000E+00  0.00000000E+00  0.00000000E+00
  0.00000000E+00  0.00000000E+00  0.00000000E+00
  0.00000000E+00  0.00000000E+00  0.00000000E+00
  0.00000000E+00  0.00000000E+00  0.00000000E+00
  0.00000000E+00  0.00000000E+00  0.00000000E+00
  0.00000000E+00  0.00000000E+00  0.00000000E+00
  0.00000000E+00  0.00000000E+00  0.00000000E+00
  0.00000000E+00  0.00000000E+00  0.00000000E+00
  0.00000000E+00  0.00000000E+00  0.00000000E+00
  0.00000000E+00  0.00000000E+00  0.00000000E+00
  0.00000000E+00  0.00000000E+00  0.00000000E+00
  0.00000000E+00  0.00000000E+00  0.00000000E+00
  0.00000000E+00  0.00000000E+00  0.00000000E+00
  0.00000000E+00  0.00000000E+00  0.00000000E+00
  0.00000000E+00  0.00000000E+00  0.00000000E+00
  0.00000000E+00  0.00000000E+00  0.00000000E+00
  0.00000000E+00  0.00000000E+00  0.00000000E+00
  0.00000000E+00  0.00000000E+00  0.00000000E+00
  0.00000000E+00  0.00000000E+00  0.00000000E+00
  0.00000000E+00  0.00000000E+00  0.00000000E+00
  0.00000000E+00  0.00000000E+00  0.00000000E+00
  0.00000000E+00  0.00000000E+00  0.00000000E+00
  0.00000000E+00  0.00000000E+00  0.00000000E+00
  0.00000000E+00  0.00000000E+00  0.00000000E+00
  0.00000000E+00  0.00000000E+00  0.00000000E+00
  0.00000000E+00  0.00000000E+00  0.00000000E+00
  0.00000000E+00  0.00000000E+00  0.00000000E+00
  0.00000000E+00  0.00000000E+00  0.00000000E+00
  0.00000000E+00  0.00000000E+00  0.00000000E+00
  0.00000000E+00  0.00000000E+00  0.00000000E+00
  0.00000000E+00  0.00000000E+00  0.00000000E+00
  0.00000000E+00  0.00000000E+00  0.00000000E+00
  0.00000000E+00  0.00000000E+00  0.00000000E+00
  0.00000000E+00  0.00000000E+00  0.00000000E+00
  0.00000000E+00  0.00000000E+00  0.00000000E+00
  0.00000000E+00  0.00000000E+00  0.00000000E+00
  0.00000000E+00  0.00000000E+00  0.00000000E+00
  0.00000000E+00  0.00000000E+00  0.00000000E+00
  0.00000000E+00  0.00000000E+00  0.00000000E+00
  0.00000000E+00  0.00000000E+00  0.00000000E+00
  0.00000000E+00  0.00000000E+00  0.00000000E+00
  0.00000000E+00  0.00000000E+00  0.00000000E+00
  0.00000000E+00  0.00000000E+00  0.00000000E+00
  0.00000000E+00  0.00000000E+00  0.00000000E+00
  0.00000000E+00  0.00000000E+00  0.00000000E+00
  0.00000000E+00  0.00000000E+00  0.00000000E+00
  0.00000000E+00  0.00000000E+00  0.00000000E+00
  0.00000000E+00  0.00000000E+00  0.00000000E+00
  0.00000000E+00  0.00000000E+00  0.00000000E+00
  0.00000000E+00  0.00000000E+00  0.00000000E+00
  0.00000000E+00  0.00000000E+00  0.00000000E+00
  0.00000000E+00  0.00000000E+00  0.00000000E+00
  0.00000000E+00  0.00000000E+00  0.00000000E+00
  0.00000000E+00  0.00000000E+00  0.00000000E+00
  0.00000000E+00  0.00000000E+00  0.00000000E+00
  0.00000000E+00  0.00000000E+00  0.00000000E+00
  0.00000000E+00  0.00000000E+00  0.00000000E+00
  0.00000000E+00  0.00000000E+00  0.00000000E+00
  0.00000000E+00  0.00000000E+00  0.00000000E+00
  0.00000000E+00  0.00000000E+00  0.00000000E+00
  0.00000000E+00  0.00000000E+00  0.00000000E+00
  0.00000000E+00  0.00000000E+00  0.00000000E+00
  0.00000000E+00  0.00000000E+00  0.00000000E+00
