System
1.0
11.400938747708212 -0.127046185305991 -0.2333408100202317
-5.717220176732502 9.997921982161543 0.0770862630575056
0.0362140596339119 0.0921245990614989 9.263612084811271
Li Mn Co Ni O 
15 12 8 12 64 
direct
0.1721756435985085 0.3383615256240821 0.8940199703459708 Li
0.1721754501405327 0.8383622599791895 0.8940194006299208 Li
0.6721772428401254 0.3383632694833036 0.8940218570468794 Li
0.6721752142263281 0.8383626310354486 0.8940231972461954 Li
0.4991235459394647 0.9979981299476376 0.9947184896756994 Li
0.4991229732535635 0.4979984718999635 0.994718394405322 Li
0.9991224331639575 0.9980019409698272 0.9947174485948285 Li
0.4901113255223653 0.4931286726572432 0.4966920093942599 Li
0.4901110707638271 0.9931278449192568 0.496692012047003 Li
0.990113647781072 0.4931313712865483 0.4966909631518805 Li
0.9901127949817182 0.9931296855135485 0.4966907640379191 Li
0.3300216659586557 0.164816325272697 0.3981813817119549 Li
0.3300214820877106 0.6648158414731008 0.3981822793169916 Li
0.830022661873466 0.1648145427747223 0.3981820237578339 Li
0.8300213903205458 0.6648137538267535 0.3981826506456773 Li
0.084764639669628 0.4146371319815582 0.214431917203426 Mn
0.0847649173700151 0.9146374400219255 0.2144323351967423 Mn
0.5847651110974339 0.4146358478307179 0.2144321744140517 Mn
0.5847651365724045 0.9146360021435499 0.2144318574778454 Mn
0.0857087920522588 0.170165584249849 0.213355140392388 Mn
0.0857091996566302 0.6701656730449609 0.2133566943545936 Mn
0.5857119257818842 0.1701631452343437 0.2133604333699936 Mn
0.5857109938960933 0.6701625756411251 0.213361677180273 Mn
0.1691708435425892 0.0834845876737485 0.713129036871159 Mn
0.1691704903919777 0.5834849186371828 0.7131289602968255 Mn
0.6691692016301879 0.0834845852318289 0.7131284195564593 Mn
0.6691685191290234 0.5834844957238973 0.7131286292320178 Mn
0.1656806629681498 0.3291445009775639 0.4835997307990733 Co
0.1656806891389502 0.8291442635925551 0.4835989773849126 Co
0.6656806847244184 0.3291406656905964 0.4835994957513512 Co
0.6656791610362335 0.8291393536415166 0.483599607797875 Co
0.3408524062477162 0.1717235921723135 0.9804036432280661 Co
0.3408522810704173 0.6717240248855273 0.9804031325507618 Co
0.8408529124993851 0.1717285362715092 0.9803993773871491 Co
0.8408515345720108 0.6717278449907526 0.9804006924962603 Co
0.4172748156100982 0.0871668772209647 0.7130724988000078 Ni
0.4172749571995372 0.5871665588471414 0.7130721882435759 Ni
0.9172749823993613 0.0871660298466196 0.7130710543919031 Ni
0.9172756552745436 0.5871659240248372 0.7130707871002767 Ni
0.3316235477307104 0.4176417643665717 0.2119575055240974 Ni
0.3316244590298942 0.917643667295648 0.2119582079525449 Ni
0.8316233045455306 0.4176413458578933 0.2119581368576626 Ni
0.8316232628755929 0.9176405734629066 0.2119578372770332 Ni
0.4142467059182511 0.3294639266507914 0.7142190528992364 Ni
0.4142460565334596 0.8294638813984969 0.7142185461834009 Ni
0.9142436397366692 0.3294657935880997 0.7142174681602125 Ni
0.9142446499228961 0.8294659427640849 0.7142177425170302 Ni
0.1670071470419205 0.0843245181987885 0.1040282696372022 O
0.1670073077106615 0.5843247743147847 0.1040281245672833 O
0.6670092717778331 0.0843248862619005 0.1040285439233924 O
0.6670084285315149 0.5843245740112115 0.1040292185028654 O
0.4232355020548953 0.3344310900721201 0.0952572691217725 O
0.4232355546140491 0.8344315226689467 0.0952577371677912 O
0.9232322394476469 0.3344332680715405 0.0952573744608743 O
0.9232315197706237 0.8344337841944197 0.0952567521180148 O
0.3346922741708948 0.1698722876973513 0.6097759843450403 O
0.3346914816214381 0.6698718917005789 0.609777916604075 O
0.8346931047774085 0.1698732447439985 0.6097789298970504 O
0.8346928768938899 0.6698729053131504 0.609779854913979 O
0.2632996385189429 0.0243606034789829 0.842492878554747 O
0.2632986214312357 0.5243604070987198 0.8424941530799075 O
0.7632990505706789 0.0243611852752239 0.842495958100267 O
0.7632989387721141 0.5243621881479777 0.842497090608411 O
0.2609776097182454 0.2402408656027659 0.838946993175705 O
0.2609753490011411 0.7402406422970108 0.8389489655727698 O
0.7609766060681159 0.2402421010940171 0.8389460631769857 O
0.7609743111331354 0.7402426004756156 0.8389484336168483 O
0.3274742194277593 0.4097071181046537 0.5955897042237711 O
0.3274741275954321 0.9097070008867801 0.5955903581709494 O
0.8274822949019689 0.4097040238706355 0.5955899490269622 O
0.8274814608325016 0.9097028760394009 0.5955901608383171 O
0.2365729118883505 0.2585717912261163 0.3458951423406947 O
0.2365732166613914 0.758572449539763 0.3458950519288348 O
0.7365683871355301 0.2585632578614819 0.3458994238276284 O
0.7365651897724943 0.7585597372676103 0.3459016419859419 O
0.0168415754412897 0.2568018842568834 0.3385959281660815 O
0.0168427357064639 0.7568026603434185 0.3385959957770461 O
0.5168429457414785 0.2568003607656735 0.3385962181533544 O
0.5168420585721207 0.7568013598063152 0.3385973915620606 O
0.0811423537357897 0.1598399317814841 0.5958779914677134 O
0.0811442486096731 0.6598418503152029 0.5958795918767648 O
0.5811382804716613 0.1598373281188377 0.5958805040527033 O
0.5811383898453535 0.6598384585454073 0.5958814151119646 O
0.9981180818263806 0.9969492376273987 0.805655339741082 O
0.9981172474420804 0.4969487712179296 0.8056552703197277 O
0.4981193329836432 0.9969494954245596 0.8056561033216538 O
0.4981185287886052 0.4969490502828638 0.8056572021965448 O
0.9993592368215469 0.9992363729619828 0.3075564893447519 O
0.9993603494912315 0.4992375214312825 0.3075563982753802 O
0.4993621307723354 0.9992354560791641 0.3075578608300796 O
0.4993603389774561 0.4992342339054657 0.3075587319373724 O
0.1686819698638154 0.3360356057120275 0.1078218060066496 O
0.1686814255897033 0.8360358522773129 0.107821166773569 O
0.6686833765473779 0.3360339500439203 0.1078233027674172 O
0.6686835733882626 0.8360336009140026 0.1078234469044153 O
0.4840890318075107 0.2487104149272691 0.8472993591019714 O
0.4840873625445228 0.7487083843541302 0.8473015300020836 O
0.9840892910256536 0.2487203278960755 0.847296659248491 O
0.9840886111780313 0.7487197962739696 0.8472979877853453 O
0.0798165738983778 0.4169428791518804 0.6015716972511517 O
0.0798154016284932 0.916942010287076 0.6015720270161071 O
0.5798179481491824 0.4169429644399873 0.601571461647378 O
0.5798178890606518 0.9169424689231361 0.6015712131757023 O
0.2332422795645699 0.4786683619644083 0.3506223223357436 O
0.2332416002789324 0.9786683905357701 0.3506225487006805 O
0.7332463030304026 0.4786643597668176 0.3506215665173226 O
0.7332480484010047 0.9786644236610225 0.3506213930527535 O
0.4246828228620595 0.0877158677214638 0.0930624056263334 O
0.4246821377727639 0.5877161113893685 0.0930623106583302 O
0.9246878514628852 0.0877257841146456 0.0930566281400127 O
0.9246869424153508 0.5877241381012458 0.0930569166583455 O
