System
1.0
9.96074 0.00011 -6e-05
4e-05 12.94709 0.00158
4e-05 -0.00102 9.42854
Li Mn P O 
6 16 16 64 
direct
0.2290322603109742 0.1239062060207837 0.1773303100915758 Li
0.7308327919108162 0.1234178477452696 0.176606958606626 Li
0.4793243328856585 0.8786704340395858 0.3280008299208789 Li
0.9761352147759296 0.8763134008280915 0.318534049269361 Li
0.2728165721258721 0.3747869730788199 0.8270250837679832 Li
0.7713171184007139 0.3750870072446788 0.8258647166748206 Li
0.5044546760494573 0.2547984554939259 0.004781144593091 Mn
0.4923072646237173 0.7507411551728166 0.0004433802371755 Mn
0.0011863714286146 0.2474723703149693 0.0041866116404775 Mn
0.0098076761770495 0.7439630473844837 0.9889407535045099 Mn
0.2516341271422172 0.2504994084638437 0.5063876796576072 Mn
0.2473654477576994 0.7508099516958351 0.5002954836868496 Mn
0.7490017632718797 0.2462311279494747 0.4986253087742852 Mn
0.7533070384053681 0.74589954627025 0.5052807620991255 Mn
0.9993744193820733 0.999005231374898 0.9852168099690513 Mn
0.0004265101018948 0.4943665619710768 0.016086357338608 Mn
0.5044769472807976 0.0066237429339734 0.979779133949087 Mn
0.5011401830038128 0.4999964423849554 0.0187848636735597 Mn
0.2485202335121404 0.5059149190044016 0.4925038870760144 Mn
0.2451839858893089 0.9992080745583716 0.5121370448964074 Mn
0.7579781736608884 0.5018907657080052 0.4931615131803416 Mn
0.7484139967299966 0.9943497153608393 0.5167974254965887 Mn
0.2360964146109678 0.3694601311530487 0.1877349768597813 P
0.2289076170992772 0.8817337953860422 0.1704085999314241 P
0.7437720263160019 0.3684071343678278 0.1858684358997149 P
0.723656546551604 0.8816220007431559 0.1664409210643157 P
0.0269180011327879 0.3801431173399727 0.6726783751421012 P
0.0161233998294319 0.8653892720542483 0.6778558250049201 P
0.5227482824975463 0.3783343156268824 0.6692258562325997 P
0.5053090700085491 0.8611858686235008 0.6813978935397135 P
0.2648929331056607 0.135977006429265 0.822384832352638 P
0.2682873513666533 0.6107451779450157 0.8254032094131499 P
0.7621053189890209 0.1338011295257077 0.8184079060324566 P
0.7749450515890832 0.6152028551149551 0.8321386552567962 P
0.4760431558123108 0.1182571276186676 0.3270330505718554 P
0.4807135412796274 0.6359601529394548 0.3249066613103077 P
0.9787180438606795 0.1144816006301056 0.3301401198752016 P
0.9910020504460684 0.6357560656020473 0.3179899059487092 P
0.0934664592168588 0.2820166711338232 0.609594297301544 O
0.0912799775256929 0.7700894466837134 0.6166888047436484 O
0.5921263608035913 0.2854835578328258 0.5975932905281774 O
0.5744145678782929 0.7607187594566809 0.6337366328150188 O
0.1698619503047872 0.2674866226248316 0.1416317817248572 O
0.157819485032643 0.788783688731387 0.1001166569406187 O
0.6778333390842547 0.2665743060722834 0.1346970264301753 O
0.6525682706897047 0.7894671233993006 0.0939569595088096 O
0.3310637748842487 0.2358734724393046 0.8781849886202729 O
0.3470800170036656 0.7050184047281007 0.8830199594546285 O
0.828049926955425 0.2344090569703224 0.8725817995910783 O
0.8466733766801807 0.7092547108828609 0.8970458219897339 O
0.4000042154707213 0.2119482284952059 0.3910515251685074 O
0.4093628499953156 0.7360113821075521 0.3804497586678778 O
0.9056292294728417 0.2073386806388225 0.3985165511064165 O
0.9208730197139595 0.7363819947334153 0.3640495905179437 O
0.3411592973814033 0.0392505994542597 0.8758138246839424 O
0.3345702225270953 0.5105063916254814 0.8790120513393026 O
0.8377505389192659 0.0375138543169531 0.8670274186896987 O
0.8431241605608296 0.5146400129048451 0.8919641554507765 O
0.4125248592569545 0.0170350658753282 0.3831468366720167 O
0.4022652884376908 0.5404830127419604 0.3797422292312567 O
0.9165217950323921 0.0124782974965755 0.3832173708758698 O
0.9168028063447594 0.5401480641841085 0.3716288977585687 O
0.3825684582268394 0.3749436763884397 0.1323126594995047 O
0.3822164323166031 0.8769364904871517 0.1357690725638824 O
0.8911831801965515 0.3726963413839975 0.122902765748884 O
0.8758155590958875 0.8806191970961151 0.1313498116660657 O
0.2746580212134386 0.134442345409452 0.6537045154328263 O
0.294003248392171 0.6151617882983206 0.6561667932144774 O
0.7654035382430303 0.1340486458191508 0.6496193765771114 O
0.7867859263219347 0.61694544201316 0.6663595137546808 O
0.118776535131499 0.1303892011740369 0.8813832577183051 O
0.1198762713155475 0.6167131822363637 0.8743794181602279 O
0.6145777773052774 0.1299848339895273 0.8812459079446044 O
0.6235714688225624 0.6155907753178711 0.8759271851205382 O
0.1313869675296502 0.1197840784572869 0.3684706901803083 O
0.1399302150120155 0.6355299134086778 0.3774614760421266 O
0.6280940070558177 0.1225412056843185 0.3639799023578636 O
0.6262630411800247 0.6324107470134073 0.3816762002505664 O
0.0555504397171252 0.3790047603594306 0.8381986404276929 O
0.0246235820511786 0.8602787516310411 0.8466483864616996 O
0.5537049745956836 0.3732942378552907 0.8331639364654058 O
0.5088657809375846 0.8658664674934549 0.8516162727046493 O
0.2262145077019545 0.3763099611883127 0.358609343435923 O
0.1986787980912503 0.8755578212533861 0.3355418864835662 O
0.7405868910984634 0.3667394418593865 0.3562223001644446 O
0.6926980495479559 0.8765054140963203 0.3300591794449054 O
0.1580467274582078 0.4631402080685121 0.1256631064364037 O
0.1674423923238363 0.9838211435701314 0.1155151723754053 O
0.6663386775777327 0.462857878175287 0.1367452109869514 O
0.6598951891915588 0.9842193929470955 0.1083402654425779 O
0.450281522080355 0.1236915970989572 0.1607303905894638 O
0.4712314402033008 0.6372033570757292 0.1570031770138593 O
0.9518683108871001 0.1219862924023846 0.1645968639068001 O
0.9858949986473425 0.6308124990420779 0.1468273198958342 O
0.3689273705253759 0.3739322252083183 0.6343959972555123 O
0.3571543103694785 0.8624861946740676 0.6176995658533389 O
0.8745828186605089 0.380801532770429 0.6386849218140314 O
0.8688215339943074 0.8635063409315487 0.6213042449978924 O
0.0968010960476847 0.4762596634113235 0.6078751103959614 O
0.0844828179371443 0.9662632820743536 0.6328934131251093 O
0.5839562322457567 0.4799354864726745 0.611558639656201 O
0.5785517754321334 0.95718158184067 0.6291304528968485 O
