System                                  
   1.0000000000000000     
     4.6534466155496093    0.0002341473763075    2.6869571917401749
    -1.5509591050435039    4.9621341055863484   -2.6868435750042456
    -0.0000096252916633    0.0001361241904663    5.3739143141051393
  Li              Mn              O             
     8     1     6
Direct
     0.0993687552977438    0.3510273207650541    0.4881143382804141
     0.5118808435553214    0.6489397692028527    0.2364532056758972
     0.2364965072396885    0.6490043604649419    0.9006183491141936
     0.3407878599500796    0.0224238699822716    0.3408083716466650
     0.6592121437697015    0.9775764727152768    0.6591920743769245
     0.7635034815264761    0.3509953539875170    0.0993817928539066
     0.4881191161387567    0.3510602108916004    0.7635470769051714
     0.9006313294755922    0.6489729447026120    0.5118859649623161
     1.0000002889628452    1.0000008023431652    1.0000004896209473
     0.2297077841446507    0.7678207022587310    0.6270861451427578
     0.3729263584627068    0.2322730002417300    0.0889788394124381
     0.0889072884452108    0.2322380956723434    0.7703228174280330
     0.9110925374862884    0.7677614869834557    0.2296772263799005
     0.6270736026787812    0.7677267000366188    0.9110213220233609
     0.7702921028661569    0.2321789097518077    0.3729139861770754

  0.00000000E+00  0.00000000E+00  0.00000000E+00
  0.00000000E+00  0.00000000E+00  0.00000000E+00
  0.00000000E+00  0.00000000E+00  0.00000000E+00
  0.00000000E+00  0.00000000E+00  0.00000000E+00
  0.00000000E+00  0.00000000E+00  0.00000000E+00
  0.00000000E+00  0.00000000E+00  0.00000000E+00
  0.00000000E+00  0.00000000E+00  0.00000000E+00
  0.00000000E+00  0.00000000E+00  0.00000000E+00
  0.00000000E+00  0.00000000E+00  0.00000000E+00
  0.00000000E+00  0.00000000E+00  0.00000000E+00
  0.00000000E+00  0.00000000E+00  0.00000000E+00
  0.00000000E+00  0.00000000E+00  0.00000000E+00
  0.00000000E+00  0.00000000E+00  0.00000000E+00
  0.00000000E+00  0.00000000E+00  0.00000000E+00
  0.00000000E+00  0.00000000E+00  0.00000000E+00
