System
1.0
4.614072909967165 -1.22456419628e-05 2.663972285097036
-1.538021344613919 4.90889380741556 -2.6639688955561245
7.671390754e-06 -1.55341213153e-05 5.327902343594185
Li Mn O 
8 1 6 
direct
0.09966312664289309 0.3506642007445125 0.4872664773821873 Li
0.512734011089113 0.6493368248678182 0.2362670216641709 Li
0.23626496126311514 0.6493339091795992 0.9003330681866242 Li
0.34053770986178744 0.0216360327232614 0.3405373668055292 Li
0.6594622621166497 0.9783637895975738 0.6594628030522908 Li
0.7637350392375292 0.3506666697420304 0.09966729395296293 Li
0.48726629637050856 0.3506638654017356 0.7637333017032116 Li
0.9003372215631069 0.6493364476256553 0.5127341103850737 Li
-9.890813897999999e-07 -2.8034525434e-06 -7.578854255000001e-07 Mn
0.230052923379711 0.7683573032219524 0.6266201760721666 O
0.37338202171881407 0.23164607067428758 0.0883177512666569 O
0.08831709377410858 0.23164105849758226 0.7699450204368347 O
0.9116831326146037 0.7683594294675808 0.2300553621146616 O
0.6266182180674819 0.7683542597546232 0.911682677024674 O
0.7699469713819677 0.2316429419543229 0.37338032783838226 O
