System                                  
   1.0000000000000000     
    11.4009387477082118   -0.1270461853059910   -0.2333408100202317
    -5.7172201767325017    9.9979219821615430    0.0770862630575056
     0.0362140596339119    0.0921245990614989    9.2636120848112711
  Mn              Co              Ni              O             
    12     8    12    64
Direct
     0.0821884972758942    0.4156456574134352    0.2123813619808464
     0.0824645899232018    0.9155208509636177    0.2119280916157934
     0.5821091968877422    0.4159457484704763    0.2134911991303754
     0.5820373923972302    0.9166170996700511    0.2152786706093448
     0.0829532602286337    0.1680276201552675    0.2100330678868029
     0.0841547090919082    0.6684656676590829    0.2139276917589202
     0.5835051656692675    0.1689361579456528    0.2137369430140038
     0.5826873310486962    0.6686990773591169    0.2150187746043495
     0.1659723288335399    0.0806151629391108    0.7070799250551285
     0.1693042872776634    0.5827568714052112    0.7090652045150232
     0.6683133038382152    0.0840488736807704    0.7075620239912355
     0.6667518035168180    0.5821215933580911    0.7063843415044191
     0.1662036788993851    0.3278599931166661    0.4794318453735460
     0.1684307710049432    0.8335757306190037    0.4841282416476590
     0.6664910883420452    0.3319398487416453    0.4843699263604441
     0.6671876565040574    0.8333224729736299    0.4856658662693224
     0.3349363534435713    0.1663831569898865    0.9877609568065611
     0.3354048465152489    0.6685221970201001    0.9882090418808404
     0.8348909119586614    0.1671764611804776    0.9886655938976475
     0.8343892181129202    0.6662999903774346    0.9887099782154649
     0.4147367666161445    0.0837885689890752    0.7056907914305843
     0.4185077015221781    0.5865219197112777    0.7101574961432882
     0.9150859077025263    0.0831139058625347    0.7096039632229881
     0.9159393484478867    0.5840789345322126    0.7079013831043234
     0.3308491949046913    0.4156186067095609    0.2113556572169449
     0.3308259864813807    0.9161633914109002    0.2145736358147489
     0.8312839604406881    0.4164098825499783    0.2131304919266383
     0.8307612064434233    0.9160860702999714    0.2129397821348849
     0.4132699321506629    0.3296501415707750    0.7050926246009160
     0.4168564782559757    0.8326775336040116    0.7105475872681932
     0.9162853003150918    0.3315887717941017    0.7089938199168403
     0.9146010450252817    0.8301012360814916    0.7087795213350200
     0.1681750965974767    0.0847115665050770    0.1038349967227357
     0.1693395052823534    0.5857328691965993    0.1089920656162429
     0.6690807407421703    0.0862067878500911    0.1080752913631698
     0.6687235158244124    0.5859719039609879    0.1082658401365359
     0.4188322458649482    0.3347768251133028    0.0966928385769152
     0.4174967119336794    0.8370973020187420    0.1014458647431632
     0.9186128890055019    0.3355092622450231    0.0962793979292847
     0.9180179146510933    0.8340816508649540    0.0972666395768899
     0.3324727428315674    0.1663214665975892    0.6057600758432518
     0.3379729699631792    0.6705928499119764    0.6117620099572204
     0.8357181688914274    0.1684871049825032    0.6085590502198459
     0.8347052221468357    0.6680361975624414    0.6073667905203820
     0.2616816217645883    0.0221029300793633    0.8371835808518994
     0.2626846132635623    0.5254434505798516    0.8414902527305059
     0.7617669108633522    0.0233455419676786    0.8390652456078946
     0.7615799196414392    0.5221581513523734    0.8368310824711789
     0.2614566713060424    0.2359072971247653    0.8364024707777887
     0.2630340860418098    0.7382310343452403    0.8389095453497794
     0.7627471648770860    0.2379891475179887    0.8373518173602216
     0.7613073680476584    0.7363067296380149    0.8367310999384070
     0.3194176037268939    0.4064399705646451    0.5938980887309033
     0.3286761337804952    0.9147255328370474    0.5909809036441783
     0.8339479359518404    0.4166374680857882    0.5899841853039133
     0.8333861080546265    0.9162321897637753    0.5914069708567725
     0.2373332876264928    0.2588385709403911    0.3423286852083406
     0.2398441145903397    0.7625019899853536    0.3453858038840523
     0.7387320183121165    0.2625284414816370    0.3459249143366072
     0.7378911997328733    0.7625402822974700    0.3476621042137445
     0.0208722194964370    0.2586685844960818    0.3396608414611886
     0.0229845812366284    0.7606907463013449    0.3424019714945275
     0.5212952825585825    0.2598902536516853    0.3420850320833529
     0.5211475649657054    0.7603478844097316    0.3437237050930200
     0.0858828389253508    0.1682381965533195    0.5977822171303623
     0.0884450997250824    0.6719467628798048    0.5985285430250776
     0.5884754327489093    0.1729165500999918    0.5973869370689030
     0.5877178635707682    0.6722124541524470    0.5998138849050589
     0.9972053921347205    0.9961938070489896    0.8065771395957152
     0.9982856046971068    0.4979369127675639    0.8055237090308249
     0.4984497097265927    0.0002947279766103    0.8042545096542977
     0.4972000356440743    0.4956617677047950    0.8030615931554725
     0.9992704124754954    0.9990456400160467    0.3103813701672177
     0.9989192226359719    0.4983606354490930    0.3127203643519817
     0.4985124214315234    0.9997930211980601    0.3142289688031387
     0.4974964800472077    0.4979130675204188    0.3129230920497809
     0.1658198309962498    0.3349575621031103    0.1083916361054048
     0.1667911684696935    0.8345224307227544    0.1102403457321769
     0.6659707893698856    0.3352727499658186    0.1104154023663799
     0.6648517573173662    0.8347860290759245    0.1119510614553394
     0.4754857991231637    0.2386972066987612    0.8383934504702708
     0.4788500584904067    0.7504495222285518    0.8530839310958384
     0.9765702489448026    0.2385785826426045    0.8424406265956106
     0.9757711516386945    0.7383331834126873    0.8411969561594054
     0.0866363464804443    0.4164019871591537    0.6006701627115859
     0.0841101639527312    0.9164013745005236    0.5989567026443924
     0.5845361302012553    0.4165624131270728    0.5960674011977141
     0.5876214045175135    0.9169252295885353    0.6005858384320643
     0.2363737112591054    0.4726437014638114    0.3464629579276065
     0.2372728667487750    0.9753911401625200    0.3452033478223582
     0.7362289049942445    0.4741580182334640    0.3474333978842574
     0.7365429693370023    0.9750476873187279    0.3483408924832851
     0.4169216787021279    0.0866375685656412    0.1014758377912617
     0.4176344868281079    0.5879592939641749    0.1016301333608280
     0.9160064227297592    0.0869299621165972    0.0993470707423674
     0.9174888815443377    0.5867701957478938    0.1011907127940441

  0.00000000E+00  0.00000000E+00  0.00000000E+00
  0.00000000E+00  0.00000000E+00  0.00000000E+00
  0.00000000E+00  0.00000000E+00  0.00000000E+00
  0.00000000E+00  0.00000000E+00  0.00000000E+00
  0.00000000E+00  0.00000000E+00  0.00000000E+00
  0.00000000E+00  0.00000000E+00  0.00000000E+00
  0.00000000E+00  0.00000000E+00  0.00000000E+00
  0.00000000E+00  0.00000000E+00  0.00000000E+00
  0.00000000E+00  0.00000000E+00  0.00000000E+00
  0.00000000E+00  0.00000000E+00  0.00000000E+00
  0.00000000E+00  0.00000000E+00  0.00000000E+00
  0.00000000E+00  0.00000000E+00  0.00000000E+00
  0.00000000E+00  0.00000000E+00  0.00000000E+00
  0.00000000E+00  0.00000000E+00  0.00000000E+00
  0.00000000E+00  0.00000000E+00  0.00000000E+00
  0.00000000E+00  0.00000000E+00  0.00000000E+00
  0.00000000E+00  0.00000000E+00  0.00000000E+00
  0.00000000E+00  0.00000000E+00  0.00000000E+00
  0.00000000E+00  0.00000000E+00  0.00000000E+00
  0.00000000E+00  0.00000000E+00  0.00000000E+00
  0.00000000E+00  0.00000000E+00  0.00000000E+00
  0.00000000E+00  0.00000000E+00  0.00000000E+00
  0.00000000E+00  0.00000000E+00  0.00000000E+00
  0.00000000E+00  0.00000000E+00  0.00000000E+00
  0.00000000E+00  0.00000000E+00  0.00000000E+00
  0.00000000E+00  0.00000000E+00  0.00000000E+00
  0.00000000E+00  0.00000000E+00  0.00000000E+00
  0.00000000E+00  0.00000000E+00  0.00000000E+00
  0.00000000E+00  0.00000000E+00  0.00000000E+00
  0.00000000E+00  0.00000000E+00  0.00000000E+00
  0.00000000E+00  0.00000000E+00  0.00000000E+00
  0.00000000E+00  0.00000000E+00  0.00000000E+00
  0.00000000E+00  0.00000000E+00  0.00000000E+00
  0.00000000E+00  0.00000000E+00  0.00000000E+00
  0.00000000E+00  0.00000000E+00  0.00000000E+00
  0.00000000E+00  0.00000000E+00  0.00000000E+00
  0.00000000E+00  0.00000000E+00  0.00000000E+00
  0.00000000E+00  0.00000000E+00  0.00000000E+00
  0.00000000E+00  0.00000000E+00  0.00000000E+00
  0.00000000E+00  0.00000000E+00  0.00000000E+00
  0.00000000E+00  0.00000000E+00  0.00000000E+00
  0.00000000E+00  0.00000000E+00  0.00000000E+00
  0.00000000E+00  0.00000000E+00  0.00000000E+00
  0.00000000E+00  0.00000000E+00  0.00000000E+00
  0.00000000E+00  0.00000000E+00  0.00000000E+00
  0.00000000E+00  0.00000000E+00  0.00000000E+00
  0.00000000E+00  0.00000000E+00  0.00000000E+00
  0.00000000E+00  0.00000000E+00  0.00000000E+00
  0.00000000E+00  0.00000000E+00  0.00000000E+00
  0.00000000E+00  0.00000000E+00  0.00000000E+00
  0.00000000E+00  0.00000000E+00  0.00000000E+00
  0.00000000E+00  0.00000000E+00  0.00000000E+00
  0.00000000E+00  0.00000000E+00  0.00000000E+00
  0.00000000E+00  0.00000000E+00  0.00000000E+00
  0.00000000E+00  0.00000000E+00  0.00000000E+00
  0.00000000E+00  0.00000000E+00  0.00000000E+00
  0.00000000E+00  0.00000000E+00  0.00000000E+00
  0.00000000E+00  0.00000000E+00  0.00000000E+00
  0.00000000E+00  0.00000000E+00  0.00000000E+00
  0.00000000E+00  0.00000000E+00  0.00000000E+00
  0.00000000E+00  0.00000000E+00  0.00000000E+00
  0.00000000E+00  0.00000000E+00  0.00000000E+00
  0.00000000E+00  0.00000000E+00  0.00000000E+00
  0.00000000E+00  0.00000000E+00  0.00000000E+00
  0.00000000E+00  0.00000000E+00  0.00000000E+00
  0.00000000E+00  0.00000000E+00  0.00000000E+00
  0.00000000E+00  0.00000000E+00  0.00000000E+00
  0.00000000E+00  0.00000000E+00  0.00000000E+00
  0.00000000E+00  0.00000000E+00  0.00000000E+00
  0.00000000E+00  0.00000000E+00  0.00000000E+00
  0.00000000E+00  0.00000000E+00  0.00000000E+00
  0.00000000E+00  0.00000000E+00  0.00000000E+00
  0.00000000E+00  0.00000000E+00  0.00000000E+00
  0.00000000E+00  0.00000000E+00  0.00000000E+00
  0.00000000E+00  0.00000000E+00  0.00000000E+00
  0.00000000E+00  0.00000000E+00  0.00000000E+00
  0.00000000E+00  0.00000000E+00  0.00000000E+00
  0.00000000E+00  0.00000000E+00  0.00000000E+00
  0.00000000E+00  0.00000000E+00  0.00000000E+00
  0.00000000E+00  0.00000000E+00  0.00000000E+00
  0.00000000E+00  0.00000000E+00  0.00000000E+00
  0.00000000E+00  0.00000000E+00  0.00000000E+00
  0.00000000E+00  0.00000000E+00  0.00000000E+00
  0.00000000E+00  0.00000000E+00  0.00000000E+00
  0.00000000E+00  0.00000000E+00  0.00000000E+00
  0.00000000E+00  0.00000000E+00  0.00000000E+00
  0.00000000E+00  0.00000000E+00  0.00000000E+00
  0.00000000E+00  0.00000000E+00  0.00000000E+00
  0.00000000E+00  0.00000000E+00  0.00000000E+00
  0.00000000E+00  0.00000000E+00  0.00000000E+00
  0.00000000E+00  0.00000000E+00  0.00000000E+00
  0.00000000E+00  0.00000000E+00  0.00000000E+00
  0.00000000E+00  0.00000000E+00  0.00000000E+00
  0.00000000E+00  0.00000000E+00  0.00000000E+00
  0.00000000E+00  0.00000000E+00  0.00000000E+00
  0.00000000E+00  0.00000000E+00  0.00000000E+00
