System                                  
   1.0000000000000000     
    11.4009387477082118   -0.1270461853059910   -0.2333408100202317
    -5.7172201767325017    9.9979219821615430    0.0770862630575056
     0.0362140596339119    0.0921245990614989    9.2636120848112711
  Li              Mn              Co              Ni              O             
     1    12     8    12    64
Direct
     0.3354992792029237    0.6658246156241561    0.4024076674990971
     0.0811598913995839    0.4140605011105907    0.2115220146255118
     0.0823003430958623    0.9153345732550503    0.2134387203269636
     0.5803576165820499    0.4156139261561638    0.2115446094779936
     0.5843548188261519    0.9192908766197058    0.2127949307571538
     0.0829746258300436    0.1672123366642347    0.2136268759469554
     0.0832503571548151    0.6677867969376320    0.2124551069296800
     0.5838249879430928    0.1696493461477616    0.2136434580087794
     0.5841180586498811    0.6695820222441493    0.2112802903016910
     0.1656913288240333    0.0794779525330021    0.7057203779026870
     0.1693029189235484    0.5841603385267111    0.7112407466038088
     0.6716560108548030    0.0870560883836519    0.7090169055744538
     0.6649527817177343    0.5810337549726502    0.7067620338167043
     0.1682400900454724    0.3293846686258180    0.4817239120376090
     0.1684075626031624    0.8333675485648402    0.4851209474689971
     0.6650830763473558    0.3363677244369733    0.4814678314784905
     0.6711650121867443    0.8348332173005096    0.4855364894839310
     0.3332284690428862    0.1648352060417698    0.9873402056539758
     0.3371426864066815    0.6709089897845464    0.9865513211316808
     0.8372240533495572    0.1650016470718849    0.9871659264547741
     0.8342400768938396    0.6668564384739377    0.9881734757126142
     0.4152081028059441    0.0842201981202353    0.7056971212717745
     0.4199261167177268    0.5880568052397747    0.7125400776190389
     0.9169726530281328    0.0829632088823803    0.7114297763000274
     0.9144339045476632    0.5832799753383683    0.7060512731119327
     0.3304904100829449    0.4159030976106310    0.2095796248041748
     0.3312996330465846    0.9165814670131615    0.2139364776699422
     0.8308643228057976    0.4170367320409167    0.2114364833192143
     0.8307778081616062    0.9155797323833433    0.2145391541101070
     0.4114742193954013    0.3294713252604404    0.7063158692289216
     0.4193420603441730    0.8352294250984734    0.7106376324112667
     0.9215695009532247    0.3328842954902755    0.7112852159255525
     0.9137419213808520    0.8283783315346516    0.7060497074557691
     0.1680977391168690    0.0841486853855115    0.1061590773883760
     0.1691687082954393    0.5855882535609616    0.1088743987421053
     0.6698649885505427    0.0869943775391978    0.1087999977546208
     0.6676275827919799    0.5858897287746572    0.1049841783114553
     0.4173251410219494    0.3328148820571351    0.0947277937730210
     0.4182619491667581    0.8373201989538039    0.1017273036271137
     0.9196527134065078    0.3318481580781116    0.0960638787514350
     0.9178485727676682    0.8352490462415917    0.0985969006718269
     0.3328395723559955    0.1667558531957743    0.6056723798851303
     0.3388846466735809    0.6719340266643123    0.6110943466115608
     0.8399541881238749    0.1696074435305268    0.6120662502095932
     0.8323751064694830    0.6660696889423120    0.6059567042713874
     0.2614196417691055    0.0213775757170127    0.8365711916157600
     0.2642009907922377    0.5273804841723913    0.8428979066038582
     0.7626263199364848    0.0228989010833075    0.8397901977949801
     0.7608183917301663    0.5216646187551558    0.8365593696202911
     0.2593913143488385    0.2342966228355939    0.8356822620295947
     0.2641051266375082    0.7400279585785515    0.8389288246815489
     0.7661447967626053    0.2374105567108361    0.8406951507778266
     0.7612659598445265    0.7358455829306417    0.8364874576602319
     0.3200155059227874    0.4077595089210091    0.5940959414399767
     0.3292417903543207    0.9152057862705035    0.5906559049977533
     0.8204250452485162    0.4137890978146249    0.5929929623905451
     0.8256443357867759    0.9117172370579152    0.5938149998429804
     0.2367985470349338    0.2587005216384234    0.3453733800011533
     0.2400523375600857    0.7603855452326659    0.3445075182221896
     0.7376876078840442    0.2640190315412227    0.3454453248042796
     0.7391452571203305    0.7619933653311975    0.3443442239485883
     0.0219342315318085    0.2596309579493540    0.3412081578844676
     0.0233507664151310    0.7601467446738566    0.3425607907900655
     0.5195788063011622    0.2598897006228637    0.3404123812833749
     0.5220859121768509    0.7611556792846059    0.3420788283882103
     0.0848074647713834    0.1654136398923805    0.5967412533239365
     0.0871775097539737    0.6701882056646062    0.5970389805326073
     0.5900647861526186    0.1761419781067375    0.5985253432523461
     0.5855928328963987    0.6691587576904018    0.5989849213875031
     0.9974016303971577    0.9932446387799325    0.8048089966387062
     0.9995577807945872    0.5004213439766440    0.8054222469902252
     0.4996110579259473    1.0010797209334381    0.8043544887306771
     0.4963267994068851    0.4956133131330468    0.8054641816151097
    -0.0014675300979219    0.9975789057860808    0.3136010213568926
     0.9984543353979655    0.4980427893331664    0.3118547776047557
     0.4990975728769495   -0.0001259455095124    0.3137681033521997
     0.4972820954198227    0.4994485050020911    0.3098440070474389
     0.1646289787705437    0.3329097055933988    0.1092073260650201
     0.1666316506386792    0.8349436633446766    0.1101708809364542
     0.6646985702985967    0.3352231261205897    0.1094323439471342
     0.6670702534176041    0.8367978840343704    0.1102570397850106
     0.4745722187740382    0.2384526789952695    0.8389070455169366
     0.4811590698555044    0.7531210659560775    0.8527156687325149
     0.9805019234507215    0.2270491303807179    0.8540365310418065
     0.9749460228574737    0.7368529137031238    0.8390679853854095
     0.0892358793723945    0.4174622517565162    0.6029745717204238
     0.0836383143452775    0.9155187102487196    0.5951365222649470
     0.5799748601495823    0.4176885845494282    0.5951836932189846
     0.5874097357465575    0.9202862887292032    0.5975431669680574
     0.2361927499064467    0.4767132892309511    0.3466944423151254
     0.2375175315690757    0.9750619639963276    0.3456776508165902
     0.7319012198861837    0.4759445421236778    0.3474151000780513
     0.7398762889717080    0.9765480214364630    0.3456643192637363
     0.4166176659104656    0.0849929425778522    0.1006427977618969
     0.4176909409839452    0.5915337469368206    0.1006304525884598
     0.9154008000708879    0.0833388357281924    0.1040314958699333
     0.9174786095399869    0.5877109954081837    0.1007169237408126

  0.00000000E+00  0.00000000E+00  0.00000000E+00
  0.00000000E+00  0.00000000E+00  0.00000000E+00
  0.00000000E+00  0.00000000E+00  0.00000000E+00
  0.00000000E+00  0.00000000E+00  0.00000000E+00
  0.00000000E+00  0.00000000E+00  0.00000000E+00
  0.00000000E+00  0.00000000E+00  0.00000000E+00
  0.00000000E+00  0.00000000E+00  0.00000000E+00
  0.00000000E+00  0.00000000E+00  0.00000000E+00
  0.00000000E+00  0.00000000E+00  0.00000000E+00
  0.00000000E+00  0.00000000E+00  0.00000000E+00
  0.00000000E+00  0.00000000E+00  0.00000000E+00
  0.00000000E+00  0.00000000E+00  0.00000000E+00
  0.00000000E+00  0.00000000E+00  0.00000000E+00
  0.00000000E+00  0.00000000E+00  0.00000000E+00
  0.00000000E+00  0.00000000E+00  0.00000000E+00
  0.00000000E+00  0.00000000E+00  0.00000000E+00
  0.00000000E+00  0.00000000E+00  0.00000000E+00
  0.00000000E+00  0.00000000E+00  0.00000000E+00
  0.00000000E+00  0.00000000E+00  0.00000000E+00
  0.00000000E+00  0.00000000E+00  0.00000000E+00
  0.00000000E+00  0.00000000E+00  0.00000000E+00
  0.00000000E+00  0.00000000E+00  0.00000000E+00
  0.00000000E+00  0.00000000E+00  0.00000000E+00
  0.00000000E+00  0.00000000E+00  0.00000000E+00
  0.00000000E+00  0.00000000E+00  0.00000000E+00
  0.00000000E+00  0.00000000E+00  0.00000000E+00
  0.00000000E+00  0.00000000E+00  0.00000000E+00
  0.00000000E+00  0.00000000E+00  0.00000000E+00
  0.00000000E+00  0.00000000E+00  0.00000000E+00
  0.00000000E+00  0.00000000E+00  0.00000000E+00
  0.00000000E+00  0.00000000E+00  0.00000000E+00
  0.00000000E+00  0.00000000E+00  0.00000000E+00
  0.00000000E+00  0.00000000E+00  0.00000000E+00
  0.00000000E+00  0.00000000E+00  0.00000000E+00
  0.00000000E+00  0.00000000E+00  0.00000000E+00
  0.00000000E+00  0.00000000E+00  0.00000000E+00
  0.00000000E+00  0.00000000E+00  0.00000000E+00
  0.00000000E+00  0.00000000E+00  0.00000000E+00
  0.00000000E+00  0.00000000E+00  0.00000000E+00
  0.00000000E+00  0.00000000E+00  0.00000000E+00
  0.00000000E+00  0.00000000E+00  0.00000000E+00
  0.00000000E+00  0.00000000E+00  0.00000000E+00
  0.00000000E+00  0.00000000E+00  0.00000000E+00
  0.00000000E+00  0.00000000E+00  0.00000000E+00
  0.00000000E+00  0.00000000E+00  0.00000000E+00
  0.00000000E+00  0.00000000E+00  0.00000000E+00
  0.00000000E+00  0.00000000E+00  0.00000000E+00
  0.00000000E+00  0.00000000E+00  0.00000000E+00
  0.00000000E+00  0.00000000E+00  0.00000000E+00
  0.00000000E+00  0.00000000E+00  0.00000000E+00
  0.00000000E+00  0.00000000E+00  0.00000000E+00
  0.00000000E+00  0.00000000E+00  0.00000000E+00
  0.00000000E+00  0.00000000E+00  0.00000000E+00
  0.00000000E+00  0.00000000E+00  0.00000000E+00
  0.00000000E+00  0.00000000E+00  0.00000000E+00
  0.00000000E+00  0.00000000E+00  0.00000000E+00
  0.00000000E+00  0.00000000E+00  0.00000000E+00
  0.00000000E+00  0.00000000E+00  0.00000000E+00
  0.00000000E+00  0.00000000E+00  0.00000000E+00
  0.00000000E+00  0.00000000E+00  0.00000000E+00
  0.00000000E+00  0.00000000E+00  0.00000000E+00
  0.00000000E+00  0.00000000E+00  0.00000000E+00
  0.00000000E+00  0.00000000E+00  0.00000000E+00
  0.00000000E+00  0.00000000E+00  0.00000000E+00
  0.00000000E+00  0.00000000E+00  0.00000000E+00
  0.00000000E+00  0.00000000E+00  0.00000000E+00
  0.00000000E+00  0.00000000E+00  0.00000000E+00
  0.00000000E+00  0.00000000E+00  0.00000000E+00
  0.00000000E+00  0.00000000E+00  0.00000000E+00
  0.00000000E+00  0.00000000E+00  0.00000000E+00
  0.00000000E+00  0.00000000E+00  0.00000000E+00
  0.00000000E+00  0.00000000E+00  0.00000000E+00
  0.00000000E+00  0.00000000E+00  0.00000000E+00
  0.00000000E+00  0.00000000E+00  0.00000000E+00
  0.00000000E+00  0.00000000E+00  0.00000000E+00
  0.00000000E+00  0.00000000E+00  0.00000000E+00
  0.00000000E+00  0.00000000E+00  0.00000000E+00
  0.00000000E+00  0.00000000E+00  0.00000000E+00
  0.00000000E+00  0.00000000E+00  0.00000000E+00
  0.00000000E+00  0.00000000E+00  0.00000000E+00
  0.00000000E+00  0.00000000E+00  0.00000000E+00
  0.00000000E+00  0.00000000E+00  0.00000000E+00
  0.00000000E+00  0.00000000E+00  0.00000000E+00
  0.00000000E+00  0.00000000E+00  0.00000000E+00
  0.00000000E+00  0.00000000E+00  0.00000000E+00
  0.00000000E+00  0.00000000E+00  0.00000000E+00
  0.00000000E+00  0.00000000E+00  0.00000000E+00
  0.00000000E+00  0.00000000E+00  0.00000000E+00
  0.00000000E+00  0.00000000E+00  0.00000000E+00
  0.00000000E+00  0.00000000E+00  0.00000000E+00
  0.00000000E+00  0.00000000E+00  0.00000000E+00
  0.00000000E+00  0.00000000E+00  0.00000000E+00
  0.00000000E+00  0.00000000E+00  0.00000000E+00
  0.00000000E+00  0.00000000E+00  0.00000000E+00
  0.00000000E+00  0.00000000E+00  0.00000000E+00
  0.00000000E+00  0.00000000E+00  0.00000000E+00
  0.00000000E+00  0.00000000E+00  0.00000000E+00
