System                                  
   1.0000000000000000     
     5.3598201043023819   -0.0494540217125748    8.0067609263609381
     2.4152085175131095    4.7363718012157623    7.9921949644486023
    -0.0275909128861901   -0.0494553234915702    9.6294214503656228
  Li              Co              O             
     1     8    16
Direct
     0.2511698532615238    0.2489857236261646    0.7521980437972465
     0.9966899004424050    0.9937321680561177    0.9966547896559322
     0.0015354070071070    0.0041446516814604    0.5006112368511687
     0.0048831959988808    0.5049266593196546    0.0039026897801410
     0.9973022191545486    0.4944495355602724    0.4961571030516665
     0.5026095100384081    0.0072878285663291    0.0031639622140026
     0.4979438968188318    0.9944142109029396    0.4966219024883069
     0.4988072523638473    0.4963698309542658    0.9989532377034344
     0.5022725802306990    0.5058680348512423    0.5056260586099494
     0.1368768873979727    0.1380922574177485    0.1266153204067468
     0.1332955635786378    0.1250236368367732    0.6265317203302315
     0.1327526844560824    0.6256056877343540    0.1287469124314001
     0.1383323030551953    0.6264749969804155    0.6378168014853556
     0.6285962202920894    0.1302056157923959    0.1280654822033906
     0.6250893402630724    0.1386607271174228    0.6389751965078198
     0.6373235927057922    0.6369281896280278    0.1366220444077747
     0.6291104491959038    0.6227938613928377    0.6359900002264751
     0.3628449946908923    0.3652019698522586    0.3701804105995692
     0.3685678384664869    0.3744000676049950    0.8715936263254074
     0.3666126117664549    0.8744238748116439    0.3684824663027639
     0.3622455463347151    0.8722622842836624    0.8632130664626925
     0.8690145429072836    0.3695073908033649    0.3709802284423153
     0.8743594246448189    0.3604973406511971    0.8625730264267729
     0.8624542717679904    0.8647089228682290    0.3661010945791108
     0.8717692359113752    0.8750898359611297    0.8621542597541431

  0.00000000E+00  0.00000000E+00  0.00000000E+00
  0.00000000E+00  0.00000000E+00  0.00000000E+00
  0.00000000E+00  0.00000000E+00  0.00000000E+00
  0.00000000E+00  0.00000000E+00  0.00000000E+00
  0.00000000E+00  0.00000000E+00  0.00000000E+00
  0.00000000E+00  0.00000000E+00  0.00000000E+00
  0.00000000E+00  0.00000000E+00  0.00000000E+00
  0.00000000E+00  0.00000000E+00  0.00000000E+00
  0.00000000E+00  0.00000000E+00  0.00000000E+00
  0.00000000E+00  0.00000000E+00  0.00000000E+00
  0.00000000E+00  0.00000000E+00  0.00000000E+00
  0.00000000E+00  0.00000000E+00  0.00000000E+00
  0.00000000E+00  0.00000000E+00  0.00000000E+00
  0.00000000E+00  0.00000000E+00  0.00000000E+00
  0.00000000E+00  0.00000000E+00  0.00000000E+00
  0.00000000E+00  0.00000000E+00  0.00000000E+00
  0.00000000E+00  0.00000000E+00  0.00000000E+00
  0.00000000E+00  0.00000000E+00  0.00000000E+00
  0.00000000E+00  0.00000000E+00  0.00000000E+00
  0.00000000E+00  0.00000000E+00  0.00000000E+00
  0.00000000E+00  0.00000000E+00  0.00000000E+00
  0.00000000E+00  0.00000000E+00  0.00000000E+00
  0.00000000E+00  0.00000000E+00  0.00000000E+00
  0.00000000E+00  0.00000000E+00  0.00000000E+00
  0.00000000E+00  0.00000000E+00  0.00000000E+00
