System
1.0
5.390813483595204 -0.0224579948063885 8.083948875185182
2.440391865315285 4.764766795640481 8.077716523926922
-0.0136267647378888 -0.0233450528688609 9.712505321210662
Li Co O 
1 8 16 
direct
0.2478525003601905 0.250119052027656 0.7521174105484274 Li
0.9968193337767262 0.9914406998279812 0.9960333132897765 Co
1.0022586549772146 0.0047096759293263 0.5016895080730062 Co
0.003547241660294 0.5085698907469266 0.0036931282568194 Co
-0.0018692110052333 0.4952549007604409 0.4981038931200651 Co
0.5015428529622867 0.0047369962022444 1.0024011212528043 Co
0.4949143048488128 0.9968600382920271 0.4940152452665221 Co
0.4989619907275378 0.4952481135069989 0.9972499971883635 Co
0.5054480567739874 0.5031276144410701 0.5056395403339287 Co
0.1259856528419817 0.1472744553759711 0.1258558562838465 O
0.1307567195458101 0.1285374279066723 0.6264375420906472 O
0.1314357242878481 0.6271450119068521 0.1303248795162396 O
0.1402066030995817 0.6266360409523788 0.6373402909168455 O
0.6275079337191853 0.1285732685989276 0.129728961661256 O
0.6304106449156801 0.1381596910858383 0.6303096281655332 O
0.63744093403022 0.6266488857549944 0.1401126993418887 O
0.6368149784134425 0.6207333515590024 0.6357152597670743 O
0.3699354657668574 0.3618029426449303 0.369413508143572 O
0.3729113996296301 0.3715354609303727 0.8698910584378466 O
0.3634438279295301 0.8792610448061755 0.3639184157738267 O
0.3630247527863396 0.8732835855580333 0.859551833435747 O
0.8695213602194114 0.3715094986095241 0.3733090518262792 O
0.8744377244036116 0.3526889210120273 0.8738915892438112 O
0.8601784547121142 0.8732762369778763 0.3624262226277762 O
0.868971421367984 0.8729224978406408 0.8693607264818995 O
