System                                  
   1.0000000000000000     
     6.5665188545441717   -0.0256065475151069   -0.6679928290780012
     4.7348673673612014    4.5573196088413006   -0.6689606405382530
    -0.7253655693377528   -0.2922773703311582    5.2977505504421920
  V               F             
     2    10
Direct
    -0.0006377192385564    0.4989724074301895    0.5002056902986568
     0.5008556122589837    0.0009097173382455    0.0003995646040546
     0.0673188806500216    0.9315551912797466    0.2525269252118822
     0.7198564421132223    0.5092002768969344    0.4569269005727962
     0.8647867262791687    0.7218826082387697    0.8347084108652815
     0.7252588417859387    0.8613984558413240    0.3332702565536356
     0.4930760019331720    0.7308636175597709    0.9470626238695965
     0.4946562630990468    0.2771698870097908    0.0419115731602595
     0.2746920173290717    0.1388975634876057    0.6635360669521725
     0.9551685883916856    0.0464336816830146    0.7513408939330807
     0.1356401024540447    0.2768871091623147    0.1684107524713565
     0.2693282429441996    0.5058294840723024    0.5497003415072390

  0.00000000E+00  0.00000000E+00  0.00000000E+00
  0.00000000E+00  0.00000000E+00  0.00000000E+00
  0.00000000E+00  0.00000000E+00  0.00000000E+00
  0.00000000E+00  0.00000000E+00  0.00000000E+00
  0.00000000E+00  0.00000000E+00  0.00000000E+00
  0.00000000E+00  0.00000000E+00  0.00000000E+00
  0.00000000E+00  0.00000000E+00  0.00000000E+00
  0.00000000E+00  0.00000000E+00  0.00000000E+00
  0.00000000E+00  0.00000000E+00  0.00000000E+00
  0.00000000E+00  0.00000000E+00  0.00000000E+00
  0.00000000E+00  0.00000000E+00  0.00000000E+00
  0.00000000E+00  0.00000000E+00  0.00000000E+00
