System
1.0
6.608756152339081 0.0117906512022503 -0.5636090570507063
4.790652732140529 4.552520543673573 -0.5636090570507066
-0.6284076555518634 -0.2516137570156102 5.421529432416265
V F 
2 10 
direct
1.2622381835811016e-17 0.49999999999999994 0.5000000000000001 V
0.5 1.511137114153928e-19 5.847981436319706e-19 V
0.045481085265907314 -0.0454810852659072 0.25000000000000006 F
0.6922155667508134 0.5179358013499602 0.44976023543691135 F
0.8690422441357739 0.7215528735395953 0.8339206383613951 F
0.7215528735395951 0.8690422441357736 0.3339206383613949 F
0.5179358013499601 0.6922155667508133 -0.05023976456308912 F
0.4820641986500403 0.30778443324918625 0.050239764563088804 F
0.2784471264604045 0.1309577558642259 0.6660793616386051 F
-0.045481085265907197 0.04548108526590731 0.7500000000000001 F
0.13095775586422598 0.2784471264604044 0.16607936163860523 F
0.30778443324918625 0.48206419865004013 0.5502397645630894 F
