System
1.0
4.913036732162546 0.1583711890582714 2.9564506596480506
1.537169160058452 4.791935832589303 2.7571566502403284
-0.1085679068009038 0.1723107890291447 5.7327129669718175
Li Mn O 
2 4 8 
direct
0.12498053376212001 0.1250185704958385 0.12498381134831402 a
0.8750193551932034 0.8749814102831275 0.8750159142643009 a
0.5000003279277305 0.4999988217371666 1.6302796102845667e-08 d
0.4999999736793316 2.4182241570312523e-07 0.49999918902634793 d
-3.5005587818155746e-07 0.49999932591007473 0.49999971371552604 d
0.5000008498857255 0.4999995969825392 0.500000087830034 d
0.2624421027941181 0.2622218395976996 0.7130903093520554 e
0.2622427112643391 0.7130957218093028 0.2622188956985378 e
0.7130889049689091 0.2622449328714112 0.26244525847827227 e
0.26222087736312605 0.2624431839900022 0.2622415024398678 e
0.7375576578293348 0.7377780368524061 0.28690999213287943 e
0.7377569570084764 0.28690518944901167 0.7377806933067302 e
0.2869106245040048 0.7377551235624507 0.7375549421673216 e
0.7377794738754528 0.7375570046365636 0.7377586739370111 e
