System                                  
   1.0000000000000000     
     5.1329271786961881    0.0121551139884218   -2.9932085209026678
    -1.6671018270867322    4.8001808614097294   -3.0796828966737864
     0.0384289021639487   -0.0065241547980860    5.9489360548639194
  Li              Mn              V               O             
     2     2     2     8
Direct
     0.1303252246103591    0.3803127865412985    0.7499957281149757
     0.8696764723758657    0.6196895167247196    0.2500047300061300
     0.4999950146689338   -0.0000040361249947   -0.0000026580610931
     0.4999957060826935    0.4999994355887750    0.4999997396733813
     0.0000278727351296   -0.0000013919266186    0.0000312426404866
     0.4999629775225312   -0.0000100072169924    0.4999672313595375
     0.2674259731315218    0.7907975066693121    0.0176707077378401
     0.2766189496670554    0.2432006127932284    0.0297385221779811
     0.7134581782363810    0.2468808667817921    0.4702567694379091
     0.2731279011635281    0.2497513318774436    0.4823323220171902
     0.7268769334571124    0.7502516451067496    0.5176682436769402
     0.7233865410928052    0.7568027183607958    0.9702652402631369
     0.2865443573664976    0.7531223632099238    0.5297421802707828
     0.7325778978895863    0.2092066516145673    0.9823300006848013

  0.00000000E+00  0.00000000E+00  0.00000000E+00
  0.00000000E+00  0.00000000E+00  0.00000000E+00
  0.00000000E+00  0.00000000E+00  0.00000000E+00
  0.00000000E+00  0.00000000E+00  0.00000000E+00
  0.00000000E+00  0.00000000E+00  0.00000000E+00
  0.00000000E+00  0.00000000E+00  0.00000000E+00
  0.00000000E+00  0.00000000E+00  0.00000000E+00
  0.00000000E+00  0.00000000E+00  0.00000000E+00
  0.00000000E+00  0.00000000E+00  0.00000000E+00
  0.00000000E+00  0.00000000E+00  0.00000000E+00
  0.00000000E+00  0.00000000E+00  0.00000000E+00
  0.00000000E+00  0.00000000E+00  0.00000000E+00
  0.00000000E+00  0.00000000E+00  0.00000000E+00
  0.00000000E+00  0.00000000E+00  0.00000000E+00
