System                                  
   1.0000000000000000     
     3.0142771686988845   -5.1100147125125588   -0.0107060896648808
     2.9183230058719074    5.0546166859132713   -0.0000007687851025
    -0.0093312159351854    0.0054146900492304    5.0382766968740311
  Li              In              Mo              O             
     1     1     3     8
Direct
     0.3313786369402303    0.6656799310742190    0.6958387325351282
     0.6748012578604757    0.3373958593994617    0.7331734972090586
     0.1537326544101271    0.2982971345451040    0.2500634031612682
     0.6886421362788155    0.8443147524136968    0.2519090200603553
     0.1537249647818912    0.8554286616132012    0.2500639203642785
     0.9952970449518806    0.9976489152920255    0.5230877201552735
     0.3310370257342405    0.6655160286560567    0.0542948380475594
     0.4896454869063993    0.9841062929078492    0.4801835785896044
     0.0218251735117480    0.5109092759490049    0.4762862943946068
     0.4896480292925931    0.5055305137415205    0.4801857645124059
     0.8347074417265913    0.6683222548555504    0.0217318097501038
     0.3341521090541298    0.1670723181162676    0.0134450734881237
     0.8347080385508868    0.1663780614359806    0.0217363477322074

  0.00000000E+00  0.00000000E+00  0.00000000E+00
  0.00000000E+00  0.00000000E+00  0.00000000E+00
  0.00000000E+00  0.00000000E+00  0.00000000E+00
  0.00000000E+00  0.00000000E+00  0.00000000E+00
  0.00000000E+00  0.00000000E+00  0.00000000E+00
  0.00000000E+00  0.00000000E+00  0.00000000E+00
  0.00000000E+00  0.00000000E+00  0.00000000E+00
  0.00000000E+00  0.00000000E+00  0.00000000E+00
  0.00000000E+00  0.00000000E+00  0.00000000E+00
  0.00000000E+00  0.00000000E+00  0.00000000E+00
  0.00000000E+00  0.00000000E+00  0.00000000E+00
  0.00000000E+00  0.00000000E+00  0.00000000E+00
  0.00000000E+00  0.00000000E+00  0.00000000E+00
