System
1.0
2.8893843031274997 -5.00456041560883 -0.0
2.8893723509456954 5.0045535150134315 3.32262735339e-05
5.31439201761e-05 3.06826566148e-05 5.041301420209416
Li In Mo O 
1 1 3 8 
direct
0.33332668134250626 0.6666533626849981 0.6981178390425894 Li
0.6666631412940064 0.33332628258800573 0.7311051886893881 In
0.14691060342429055 0.2938212068485738 0.2528608447743374 Mo
0.7061730292915008 0.8530827997171692 0.2528580238169104 Mo
0.14690977042566847 0.8530827997171693 0.2528580238169104 Mo
0.9999939417051731 0.9999878834103316 0.5335932121360092 O
0.33333394363892715 0.6666678872778542 0.0575715982346447 O
0.49153577620497874 0.98307155240995 0.4763925684967139 O
0.01691804884590145 0.5084525905404393 0.4763946061359381 O
0.4915345416945521 0.5084525905404393 0.4763946061359381 O
0.8345330617319595 0.6690661234639034 0.014617091130934502 O
0.3309315917717736 0.16546746040055146 0.0146181987948192 O
0.8345358686287778 0.16546746040055144 0.0146181987948192 O
