System                                  
   1.0000000000000000     
     9.8973179505287323   -0.0029271268046785   -0.0007080970859342
     0.0041209076868966   12.6993594647412582   -0.0001603373987241
     0.0006672815599464    0.0001263835220560    9.3698092335868761
  Li              Fe              P               O             
     1    16    16    64
Direct
     0.2315901955475136    0.1238636815845995    0.1730342734703726
     0.0130414289317552    0.0042565695451684    0.9825394848169416
     0.0241733452959622    0.5111094389559927    0.9745941611486906
     0.5315497917472191    0.0057469127876488    0.9538573650835501
     0.5261581582481210    0.5096110662359029    0.9803583369319565
     0.9790788650383078    0.2609979551206670    0.0151608009905274
     0.9700300540652274    0.7600600755770128    0.0217177772119618
     0.4796685985213999    0.2617086373798538    0.0270183676614386
     0.4752315090211504    0.7572825093269828    0.0279232763706920
     0.2398625637252677    1.0072324330987901    0.4892597630517511
     0.2193267623423704    0.5105409950463871    0.4715103494116609
     0.7580886720387572    0.9913411495541082    0.5006820447453734
     0.7350124987183240    0.5086769748708189    0.4921814749456989
     0.2736232994212688    0.2618060214307783    0.5374932538484157
     0.2684411954647355    0.7597723222343887    0.5225299098153715
     0.7578969686116536    0.2513482018371948    0.5032007083537436
     0.7523724864892628    0.7497629000063620    0.4980003568342745
     0.2740974064166591    0.1228740920143198    0.8285981520791578
     0.2790877082734801    0.6231822241180561    0.8201953278435170
     0.7776678772312366    0.1242981752300775    0.8146429530845732
     0.7767750557745224    0.6193688428367409    0.8199425236368088
     0.0194024283990431    0.3711323686296072    0.6745429779179684
     0.0219390188806234    0.8792899319255068    0.6753037635432420
     0.5284260843250689    0.3703189792146961    0.6865672371940268
     0.5232113446730103    0.8698965015829464    0.6710612497124845
     0.4811966036538283    0.1322213915497602    0.3356212107683182
     0.4729049567430869    0.6207342244679479    0.3255635702486118
     0.9790137774891176    0.1209176817555069    0.3195441924944133
     0.9708047324571658    0.6260565893148407    0.3141289417664992
     0.2243440286424641    0.3713170805563866    0.1809440516526179
     0.2228907765638276    0.8743135127608408    0.1823513022121328
     0.7261706189767350    0.3697298660347951    0.1811792335963970
     0.7212863996375278    0.8819566886697786    0.1718804690519996
     0.1243551931759377    0.1171001867449233    0.8842825568573631
     0.1289460504612462    0.6164222867855503    0.8727059040214622
     0.6258519580075870    0.1205497332878833    0.8632364948306774
     0.6276208839767879    0.6163209508581278    0.8777217804327906
     0.0334296992334125    0.3744727787565061    0.8459148283836017
     0.0331015128781236    0.8787241131407538    0.8462250256172222
     0.5410017497745382    0.3740424172976817    0.8568166274773729
     0.5340859394058793    0.8758468556424180    0.8417137869178044
     0.2872951509411623    0.1270667685848454    0.6596431983830362
     0.2855979186416829    0.6287445764999574    0.6506686338977289
     0.7919858812044865    0.1227622533305861    0.6460497371449151
     0.7857266118367086    0.6170198610458734    0.6528153318603258
     0.3762310350433077    0.3652492072941805    0.6410569314109175
     0.3701202493402979    0.8748713749881480    0.6189236595231145
     0.8709669104926211    0.3665670791339195    0.6172839255923772
     0.8729806093133743    0.8822439700978233    0.6185005380196120
     0.0977829369392737    0.2733809573469652    0.6220737279248419
     0.0960871199234635    0.7811445872742558    0.6182111201826010
     0.6040026212295544    0.2734205626870604    0.6293563599971568
     0.5875656560203800    0.7683558965759474    0.6210992485907483
     0.0915109035847193    0.4704085062221446    0.6162114752892486
     0.0972803031905363    0.9783019787528860    0.6209706088909309
     0.5924079394629016    0.4699332472347779    0.6228746035637533
     0.5970782981006696    0.9678971070191105    0.6127994878408856
     0.4055211941464308    0.0325542703921922    0.3876683563089205
     0.3937009439974467    0.5241986746074123    0.3791557941519256
     0.9073393607181537    0.0226764304644736    0.3756490191273568
     0.8935813037341012    0.5299554618896350    0.3732882106103350
     0.1541786587437085    0.2694104390172050    0.1252518872771131
     0.1376876102733310    0.7834022542674191    0.1230543525842470
     0.6503372851051933    0.2727060370297454    0.1231686627774589
     0.6490436902705212    0.7828125265672538    0.1146390775524601
     0.1333789231898659    0.1147057804807947    0.3635795559445693
     0.1219070820435469    0.6180526575573717    0.3679775551778561
     0.6318795368346600    0.1304840511615545    0.3836426904388262
     0.6220870428809183    0.6145825001576729    0.3802457375771198
     0.2086002890593115    0.3764726313636043    0.3489897539499614
     0.2142555675529512    0.8786773674443398    0.3515240546376258
     0.7152552543978901    0.3716803364903158    0.3508788503235561
     0.7124177793000437    0.8843881622146124    0.3383668374213845
     0.4501917575378667    0.1376538288915848    0.1676044694066346
     0.4658491757288293    0.6252571409499627    0.1543519370693731
     0.9674918019100049    0.1245391439567930    0.1482667494428559
     0.9642121997981887    0.6243007947959613    0.1422604731911648
     0.3753426408834253    0.3687261621484527    0.1307132995562018
     0.3719157678359886    0.8628647585866469    0.1308102850451546
     0.8764021522615227    0.3629649468487359    0.1276125484582107
     0.8721106262304738    0.8790406191187070    0.1125908164917942
     0.3416896196247895    0.2219927179922478    0.8912392536796547
     0.3449165186625622    0.7234116917696712    0.8825979254865773
     0.8444668630827578    0.2237290155685173    0.8763089839270574
     0.8452055932709861    0.7209334501946115    0.8758451402828515
     0.1530546517719537    0.4666980330707320    0.1146062706140010
     0.1643818952664280    0.9790449006427481    0.1212272720560056
     0.6582350738073255    0.4697434915356362    0.1221937454417598
     0.6502620716709329    0.9804332677255730    0.1098645701318810
     0.4072611135457162    0.2289457861510047    0.3993174776832375
     0.4026478137840701    0.7208715868934287    0.3825471110974638
     0.9122541098096972    0.2199271835303830    0.3807537842520354
     0.9083315532722692    0.7287612031386331    0.3642478567599191
     0.3505894926866930    0.0258188611054711    0.8851383971732354
     0.3575282919413627    0.5270274204241781    0.8763341655065759
     0.8494087605872088    0.0271190159063797    0.8766407998276625
     0.8525063630790474    0.5238127029996565    0.8823984840582541

  0.00000000E+00  0.00000000E+00  0.00000000E+00
  0.00000000E+00  0.00000000E+00  0.00000000E+00
  0.00000000E+00  0.00000000E+00  0.00000000E+00
  0.00000000E+00  0.00000000E+00  0.00000000E+00
  0.00000000E+00  0.00000000E+00  0.00000000E+00
  0.00000000E+00  0.00000000E+00  0.00000000E+00
  0.00000000E+00  0.00000000E+00  0.00000000E+00
  0.00000000E+00  0.00000000E+00  0.00000000E+00
  0.00000000E+00  0.00000000E+00  0.00000000E+00
  0.00000000E+00  0.00000000E+00  0.00000000E+00
  0.00000000E+00  0.00000000E+00  0.00000000E+00
  0.00000000E+00  0.00000000E+00  0.00000000E+00
  0.00000000E+00  0.00000000E+00  0.00000000E+00
  0.00000000E+00  0.00000000E+00  0.00000000E+00
  0.00000000E+00  0.00000000E+00  0.00000000E+00
  0.00000000E+00  0.00000000E+00  0.00000000E+00
  0.00000000E+00  0.00000000E+00  0.00000000E+00
  0.00000000E+00  0.00000000E+00  0.00000000E+00
  0.00000000E+00  0.00000000E+00  0.00000000E+00
  0.00000000E+00  0.00000000E+00  0.00000000E+00
  0.00000000E+00  0.00000000E+00  0.00000000E+00
  0.00000000E+00  0.00000000E+00  0.00000000E+00
  0.00000000E+00  0.00000000E+00  0.00000000E+00
  0.00000000E+00  0.00000000E+00  0.00000000E+00
  0.00000000E+00  0.00000000E+00  0.00000000E+00
  0.00000000E+00  0.00000000E+00  0.00000000E+00
  0.00000000E+00  0.00000000E+00  0.00000000E+00
  0.00000000E+00  0.00000000E+00  0.00000000E+00
  0.00000000E+00  0.00000000E+00  0.00000000E+00
  0.00000000E+00  0.00000000E+00  0.00000000E+00
  0.00000000E+00  0.00000000E+00  0.00000000E+00
  0.00000000E+00  0.00000000E+00  0.00000000E+00
  0.00000000E+00  0.00000000E+00  0.00000000E+00
  0.00000000E+00  0.00000000E+00  0.00000000E+00
  0.00000000E+00  0.00000000E+00  0.00000000E+00
  0.00000000E+00  0.00000000E+00  0.00000000E+00
  0.00000000E+00  0.00000000E+00  0.00000000E+00
  0.00000000E+00  0.00000000E+00  0.00000000E+00
  0.00000000E+00  0.00000000E+00  0.00000000E+00
  0.00000000E+00  0.00000000E+00  0.00000000E+00
  0.00000000E+00  0.00000000E+00  0.00000000E+00
  0.00000000E+00  0.00000000E+00  0.00000000E+00
  0.00000000E+00  0.00000000E+00  0.00000000E+00
  0.00000000E+00  0.00000000E+00  0.00000000E+00
  0.00000000E+00  0.00000000E+00  0.00000000E+00
  0.00000000E+00  0.00000000E+00  0.00000000E+00
  0.00000000E+00  0.00000000E+00  0.00000000E+00
  0.00000000E+00  0.00000000E+00  0.00000000E+00
  0.00000000E+00  0.00000000E+00  0.00000000E+00
  0.00000000E+00  0.00000000E+00  0.00000000E+00
  0.00000000E+00  0.00000000E+00  0.00000000E+00
  0.00000000E+00  0.00000000E+00  0.00000000E+00
  0.00000000E+00  0.00000000E+00  0.00000000E+00
  0.00000000E+00  0.00000000E+00  0.00000000E+00
  0.00000000E+00  0.00000000E+00  0.00000000E+00
  0.00000000E+00  0.00000000E+00  0.00000000E+00
  0.00000000E+00  0.00000000E+00  0.00000000E+00
  0.00000000E+00  0.00000000E+00  0.00000000E+00
  0.00000000E+00  0.00000000E+00  0.00000000E+00
  0.00000000E+00  0.00000000E+00  0.00000000E+00
  0.00000000E+00  0.00000000E+00  0.00000000E+00
  0.00000000E+00  0.00000000E+00  0.00000000E+00
  0.00000000E+00  0.00000000E+00  0.00000000E+00
  0.00000000E+00  0.00000000E+00  0.00000000E+00
  0.00000000E+00  0.00000000E+00  0.00000000E+00
  0.00000000E+00  0.00000000E+00  0.00000000E+00
  0.00000000E+00  0.00000000E+00  0.00000000E+00
  0.00000000E+00  0.00000000E+00  0.00000000E+00
  0.00000000E+00  0.00000000E+00  0.00000000E+00
  0.00000000E+00  0.00000000E+00  0.00000000E+00
  0.00000000E+00  0.00000000E+00  0.00000000E+00
  0.00000000E+00  0.00000000E+00  0.00000000E+00
  0.00000000E+00  0.00000000E+00  0.00000000E+00
  0.00000000E+00  0.00000000E+00  0.00000000E+00
  0.00000000E+00  0.00000000E+00  0.00000000E+00
  0.00000000E+00  0.00000000E+00  0.00000000E+00
  0.00000000E+00  0.00000000E+00  0.00000000E+00
  0.00000000E+00  0.00000000E+00  0.00000000E+00
  0.00000000E+00  0.00000000E+00  0.00000000E+00
  0.00000000E+00  0.00000000E+00  0.00000000E+00
  0.00000000E+00  0.00000000E+00  0.00000000E+00
  0.00000000E+00  0.00000000E+00  0.00000000E+00
  0.00000000E+00  0.00000000E+00  0.00000000E+00
  0.00000000E+00  0.00000000E+00  0.00000000E+00
  0.00000000E+00  0.00000000E+00  0.00000000E+00
  0.00000000E+00  0.00000000E+00  0.00000000E+00
  0.00000000E+00  0.00000000E+00  0.00000000E+00
  0.00000000E+00  0.00000000E+00  0.00000000E+00
  0.00000000E+00  0.00000000E+00  0.00000000E+00
  0.00000000E+00  0.00000000E+00  0.00000000E+00
  0.00000000E+00  0.00000000E+00  0.00000000E+00
  0.00000000E+00  0.00000000E+00  0.00000000E+00
  0.00000000E+00  0.00000000E+00  0.00000000E+00
  0.00000000E+00  0.00000000E+00  0.00000000E+00
  0.00000000E+00  0.00000000E+00  0.00000000E+00
  0.00000000E+00  0.00000000E+00  0.00000000E+00
  0.00000000E+00  0.00000000E+00  0.00000000E+00
