System                                  
   1.0000000000000000     
     0.0000185932221880    4.1448855593691922    4.1448848868788630
     4.1448853196027198    0.0000196789211392    4.1448838010712103
     4.1448870331902130    4.1448861872284501    0.0000179654519686
  Li              P               Cl              O             
     6     1     1     5
Direct
     0.5168629190630173    0.9831382237401133    0.5168628800885474
     0.9831367858400148    0.5168608994460070    0.9831369012645186
     0.9831370211717522    0.9831369538287423    0.5168607327918973
     0.5168629284749173    0.5168629352195719    0.9831383940873683
     0.5168608365278121    0.9831367281642506    0.9831369742471476
     0.9831383479479628    0.5168629641282807    0.5168629027978434
     0.4999984024488626    0.4999992230901333    0.4999967862215073
    -0.0000005215498077    0.0000000366156892   -0.0000002658680727
     0.3915556874600189    0.3915554711124308    0.3915559737652631
     0.3915522997738130    0.3915523254943254    0.8253430880967533
     0.3915529744718338    0.8253414354813786    0.3915528797749599
     0.8253419787346251    0.3915527335922035    0.3915528496345578
     0.7500003396351561    0.7500000700868521    0.7499999030976872

  0.00000000E+00  0.00000000E+00  0.00000000E+00
  0.00000000E+00  0.00000000E+00  0.00000000E+00
  0.00000000E+00  0.00000000E+00  0.00000000E+00
  0.00000000E+00  0.00000000E+00  0.00000000E+00
  0.00000000E+00  0.00000000E+00  0.00000000E+00
  0.00000000E+00  0.00000000E+00  0.00000000E+00
  0.00000000E+00  0.00000000E+00  0.00000000E+00
  0.00000000E+00  0.00000000E+00  0.00000000E+00
  0.00000000E+00  0.00000000E+00  0.00000000E+00
  0.00000000E+00  0.00000000E+00  0.00000000E+00
  0.00000000E+00  0.00000000E+00  0.00000000E+00
  0.00000000E+00  0.00000000E+00  0.00000000E+00
  0.00000000E+00  0.00000000E+00  0.00000000E+00
