System
1.0
0.0 4.116783174708146 4.116783174708146
4.116783174708146 0.0 4.116783174708146
4.116783174708146 4.116783174708146 0.0
Li P Cl O 
6 1 1 5 
direct
0.5164047546508187 0.9835952453491812 0.5164047546508188 Li
0.9835952453491812 0.5164047546508187 0.9835952453491812 Li
0.9835952453491812 0.9835952453491813 0.5164047546508188 Li
0.5164047546508187 0.5164047546508187 0.9835952453491813 Li
0.5164047546508188 0.9835952453491812 0.9835952453491812 Li
0.9835952453491813 0.5164047546508187 0.5164047546508186 Li
0.5 0.5 0.5 P
0.0 0.0 0.0 Cl
0.39100362398667154 0.3910036239866716 0.3910036239866716 O
0.39100362398667166 0.39100362398667154 0.8269891280399707 O
0.3910036239866716 0.8269891280399707 0.3910036239866715 O
0.8269891280399707 0.3910036239866716 0.3910036239866716 O
0.75 0.75 0.75 O
