System
1.0
9.96074 0.00011 -6e-05
4e-05 12.94709 0.00158
4e-05 -0.00102 9.42854
Li Mn P O 
10 16 16 64 
direct
0.5210837667585433 0.6206305878657554 0.6824493500534649 Li
0.2317533689449191 0.1219365592407191 0.1753107101079743 Li
0.7279466802845311 0.1251729741312949 0.1705288662586574 Li
0.4804140250730958 0.8751826331342573 0.3242503121504479 Li
0.0044175823298411 0.4110610588703391 0.2944899065971914 Li
0.9811681302536617 0.8745802178726675 0.3236976369016141 Li
0.2714037918889072 0.3753782496773131 0.8247758068260566 Li
0.2466312831157388 0.9064913298952741 0.7988977601562395 Li
0.7703815002105742 0.3775157300076337 0.8267207545561438 Li
0.7499141946273972 0.9063023828236917 0.7987997745539822 Li
0.4985881262777327 0.2509306759053954 0.9995210722734708 Mn
0.5032224834449329 0.7470283351310084 0.0027168867588129 Mn
0.0015188900129555 0.2511878590866408 0.9989670595153262 Mn
0.0033494022234538 0.7482283368401248 0.995862804477494 Mn
0.2501952948075616 0.2491020027062514 0.5040289784823732 Mn
0.2477734494322696 0.744979278699048 0.496904139092299 Mn
0.7482715012871579 0.249932186622104 0.5030786108720389 Mn
0.7541899023835043 0.7475945627910838 0.506259540356821 Mn
0.9941361655850314 0.0050996898997173 0.9935146996436135 Mn
0.0237480568768267 0.5051802784431446 0.9818130278251422 Mn
0.492147143623365 0.0042513433009035 0.9941402244165063 Mn
0.4996442798988772 0.4940063428403715 0.0146077194685365 Mn
0.2579047532510918 0.5042937341816807 0.494747913243087 Mn
0.2380334025447817 0.0030454744996006 0.4975950424732487 Mn
0.7580846587802785 0.5025551601750373 0.503197079277965 Mn
0.7378843410251433 0.0039108111375002 0.4976332908378844 Mn
0.2389366948321426 0.3613175767970233 0.1841572455313939 P
0.2292939860091624 0.8814131019357592 0.1716549984904436 P
0.7404119206320777 0.3638369982724804 0.1897401420138407 P
0.7301493174912029 0.8812719069853491 0.1740725810798065 P
0.023932517011811 0.3795722984723954 0.6663194308234756 P
0.0160673540467168 0.8623520084310382 0.6833958329898038 P
0.5185667789788254 0.3817935926523849 0.672612582402581 P
0.5131799297213678 0.8603385167726926 0.6878434399989724 P
0.25537909651433 0.134366412269839 0.8164691143606921 P
0.2712125298877781 0.6194034163797276 0.8278679489400321 P
0.7552101386869015 0.1356109114401282 0.8175581021774111 P
0.7706852823634908 0.6183766015112587 0.8278992913946532 P
0.4780122603102549 0.1157874676164891 0.3294332779820138 P
0.489330978870487 0.6352043989371248 0.3180068536038465 P
0.9770645159184315 0.1153860430239574 0.3290052735219947 P
0.9933646822066571 0.6361433831078387 0.3133740304046995 P
0.0879653315922851 0.2822318980141629 0.5990246278235607 O
0.0828167504267906 0.7664246971181597 0.6232917988480507 O
0.5911674374877518 0.2895729659114955 0.6024202018156155 O
0.5741044241144226 0.7597953773453975 0.6305485039629083 O
0.174006008165288 0.2600787832181553 0.1305666863778994 O
0.1565357153862766 0.7883960705118948 0.1038415524617602 O
0.6668852468693325 0.268280380819684 0.1316551467539173 O
0.6616689055991618 0.7838885940373269 0.1089092063987562 O
0.3262364973572693 0.2315801678966687 0.8742076713803852 O
0.3472263782080388 0.7137119295667416 0.8927048899352492 O
0.8263828188992918 0.2329645697245252 0.8750542061769316 O
0.8416445661438131 0.7146230737823154 0.8937549100572124 O
0.4034791599347894 0.207595569403391 0.3976356660130325 O
0.4245293685848351 0.735692369838334 0.3728426572521835 O
0.9039980499487645 0.2084210003162008 0.3977039311765675 O
0.922919439718817 0.7337342115836029 0.3700303358078079 O
0.3266289833966789 0.033790746373709 0.8642370088396134 O
0.3274600534517647 0.516469763420378 0.8859412878774655 O
0.8270834312080092 0.034880331642282 0.8640473526754928 O
0.833647450609773 0.5175405868806853 0.8847438298000294 O
0.4226735595706959 0.0124254520989653 0.3871935424260929 O
0.4154238997051302 0.5396735302243221 0.3714494366867872 O
0.9210703382054791 0.0126824565649313 0.3874426835851068 O
0.9143494041968377 0.5372829955114792 0.3550289980149889 O
0.3837976238635007 0.369818073680591 0.1262377443047662 O
0.3820857012766929 0.8763683073249916 0.1343497512029727 O
0.8904231320119025 0.3611984552450559 0.1414321745651479 O
0.8822587337891103 0.8785767880496792 0.1352132709026894 O
0.2660990439347757 0.1354314158273751 0.648324374288915 O
0.3022872044052862 0.622691213248509 0.6636114444149119 O
0.762652194918053 0.1368804636961846 0.6490642289189783 O
0.7836806784124 0.6234365258828484 0.6633650059322077 O
0.1089159134167806 0.1316620630912684 0.8758710464993773 O
0.1215351227288408 0.6289582979432391 0.8704032686439055 O
0.6093572211037759 0.1320279844498795 0.8788676537577395 O
0.6193222057446159 0.6224530319418056 0.8753145138017279 O
0.1304851343896193 0.1216265963639062 0.3623028898948468 O
0.1403923565323625 0.6298858786473653 0.3634627795695621 O
0.6317249276479407 0.1228474592660184 0.3624031915385941 O
0.6414379556390365 0.6312351633608273 0.362082371795761 O
0.0553968958808716 0.3760572634853627 0.8309523622659529 O
0.0316148804771827 0.8625819085694776 0.8550494868840801 O
0.5466168247069714 0.3751166330420468 0.837852636019948 O
0.5316394790844035 0.8616213538150025 0.8587088036460702 O
0.2252223043131906 0.3625404809777326 0.3549246658871898 O
0.2010841573163276 0.8762871832185936 0.3365026862881484 O
0.7329754552712994 0.3647182799383551 0.3592716192741712 O
0.701530381993747 0.8766801943934962 0.3384455663216454 O
0.1490679058075687 0.4529323002050972 0.1422512249577688 O
0.1700604417585105 0.9837049324574031 0.1149038858665644 O
0.674624491961843 0.4648998759444987 0.1382417671406472 O
0.6666354385447669 0.9809946255857569 0.1148127133475957 O
0.4483579226590794 0.1213730924667009 0.1646053199906242 O
0.4820826488274958 0.6337174086656274 0.1479587281271462 O
0.9461243018609942 0.1210771038554643 0.1646617297750688 O
0.9714869202351841 0.637136863075925 0.1429690611864285 O
0.3653646625863732 0.3752522246403779 0.63651700200453 O
0.3641122302583623 0.8701938293077319 0.6427688334669446 O
0.8694289886475132 0.3773122261296013 0.6363095212113651 O
0.8653649901297215 0.8686130645136465 0.6403407276288753 O
0.0864595565086419 0.4770173877427992 0.6022108853080094 O
0.0965095497014297 0.9599220707380429 0.6458125227043213 O
0.5771831662271703 0.4845117623865162 0.6191348836305763 O
0.6009593250415993 0.952671896291715 0.6455847486784546 O
