System                                  
   1.0000000000000000     
     5.4714446467425839   -0.0059422455472778    8.3763250960549982
     2.5196372483063545    4.7728339674660445    8.3513494826753387
     0.0818465097410354   -0.0015883983455775   10.0002800936377021
  Li              Co              O             
     4     8    16
Direct
     0.2525471908323158    0.2535152033947749    0.2446265930528445
     0.2497694225206128    0.2461964626388244    0.7522969111885972
     0.7467716199182736    0.2572821864352070    0.2455711907897927
     0.7480222174018394    0.2488156682610908    0.7532937785738695
    -0.0004847220869572    0.9965475357083955    0.9987756403563093
    -0.0012723310363661    0.9969097347261930    0.4992822544004688
     0.0008579538328094    0.5022995649275930    0.0018742554159479
     0.0018649116039574    0.5021900386106514    0.5005291935609926
     0.4990405557467658    0.9969603002916715   -0.0010801396513251
     0.4996151430919943    0.9972822662755576    0.4988728867127663
     0.5013882303649413    0.5021890829753607    0.0011535654195146
     0.5010867058781721    0.5022484569551995    0.5015100512777206
     0.1251846393006807    0.1348096599226273    0.1325755419727286
     0.1276279779030526    0.1364268046162622    0.6290399251570974
     0.1374137441864942    0.6239208756183227    0.1376852515007485
     0.1407638770484292    0.6221597384802546    0.6357769721758525
     0.6309154651308833    0.1351709984825058    0.1266776395944372
     0.6283180342566758    0.1396235694133191    0.6239579286256166
     0.6357516170008496    0.6186331659744020    0.1446124674575592
     0.6409286155566327    0.6234090227286369    0.6372430161086848
     0.3718816383682564    0.3616029267731732    0.3732082461052477
     0.3747442435539356    0.3644406214612378    0.8684902972061862
     0.3591987070510983    0.8768589322362776    0.3651670437528549
     0.3589492904869254    0.8797588921539344    0.8625108703487203
     0.8714646657829346    0.3596402147103411    0.3769372259389644
     0.8751155688914888    0.3587945607124828    0.8732851038168592
     0.8626421220169994    0.8784421026042106    0.3597772588244506
     0.8641731969051966    0.8807762153609047    0.8558850883809161

  0.00000000E+00  0.00000000E+00  0.00000000E+00
  0.00000000E+00  0.00000000E+00  0.00000000E+00
  0.00000000E+00  0.00000000E+00  0.00000000E+00
  0.00000000E+00  0.00000000E+00  0.00000000E+00
  0.00000000E+00  0.00000000E+00  0.00000000E+00
  0.00000000E+00  0.00000000E+00  0.00000000E+00
  0.00000000E+00  0.00000000E+00  0.00000000E+00
  0.00000000E+00  0.00000000E+00  0.00000000E+00
  0.00000000E+00  0.00000000E+00  0.00000000E+00
  0.00000000E+00  0.00000000E+00  0.00000000E+00
  0.00000000E+00  0.00000000E+00  0.00000000E+00
  0.00000000E+00  0.00000000E+00  0.00000000E+00
  0.00000000E+00  0.00000000E+00  0.00000000E+00
  0.00000000E+00  0.00000000E+00  0.00000000E+00
  0.00000000E+00  0.00000000E+00  0.00000000E+00
  0.00000000E+00  0.00000000E+00  0.00000000E+00
  0.00000000E+00  0.00000000E+00  0.00000000E+00
  0.00000000E+00  0.00000000E+00  0.00000000E+00
  0.00000000E+00  0.00000000E+00  0.00000000E+00
  0.00000000E+00  0.00000000E+00  0.00000000E+00
  0.00000000E+00  0.00000000E+00  0.00000000E+00
  0.00000000E+00  0.00000000E+00  0.00000000E+00
  0.00000000E+00  0.00000000E+00  0.00000000E+00
  0.00000000E+00  0.00000000E+00  0.00000000E+00
  0.00000000E+00  0.00000000E+00  0.00000000E+00
  0.00000000E+00  0.00000000E+00  0.00000000E+00
  0.00000000E+00  0.00000000E+00  0.00000000E+00
  0.00000000E+00  0.00000000E+00  0.00000000E+00
