System                                  
   1.0000000000000000     
     9.8973179505287323   -0.0029271268046785   -0.0007080970859342
     0.0041209076868966   12.6993594647412582   -0.0001603373987241
     0.0006672815599464    0.0001263835220560    9.3698092335868761
  Fe              P               O             
    16    16    64
Direct
     0.0251911579631064    0.0108212392534772    0.9764869473273975
     0.0255574281266039    0.5117875224076559    0.9713579818779595
     0.5354531998698796    0.0061276918613313    0.9614752196431784
     0.5299608510756538    0.5091726220781130    0.9714231353105391
     0.9735123508625635    0.2614392105895992    0.0211403474536210
     0.9720655312203199    0.7614919299623315    0.0209701465036893
     0.4700174534303344    0.2585234985336839    0.0401302918235158
     0.4687640199290388    0.7571723649861410    0.0357892104721170
     0.2193378812964691    0.0093799685980565    0.4712392243823934
     0.2169705041533146    0.5097234608631090    0.4669319702690952
     0.7261897168377381    1.0119699991135824    0.4752319093652624
     0.7259520135113272    0.5112569736501001    0.4767445963635191
     0.2815176285801336    0.2591767383872055    0.5421895586079408
     0.2771744715577148    0.7596204406909144    0.5300434986278227
     0.7746507382674175    0.2613318640176396    0.5180851123485677
     0.7764769071147410    0.7617548829561933    0.5203879586175005
     0.2818027396354708    0.1224007589044641    0.8275741944147331
     0.2808100449832797    0.6237478043977234    0.8213904574367097
     0.7827300862054490    0.1222562447403322    0.8126962252226959
     0.7793226486964078    0.6227433193329726    0.8146448205781253
     0.0278550151522763    0.3733505245112872    0.6783223140035309
     0.0284267911187926    0.8729247194610984    0.6804134718655003
     0.5337551993555023    0.3726873908294748    0.6846202464125188
     0.5309143492216939    0.8717014023170706    0.6769756340063665
     0.4696641012582949    0.1257869651545985    0.3292709852820785
     0.4695285384626401    0.6214898000583657    0.3237247410207129
     0.9702466041117245    0.1219771966843954    0.3143541141758003
     0.9682374763384338    0.6228994368851671    0.3131667513492933
     0.2173201613911067    0.3745048738500074    0.1798668585685636
     0.2173041666222221    0.8713452881249747    0.1826879733907936
     0.7216810817079490    0.3726882624690220    0.1808999710461814
     0.7192924759048086    0.8732722483914651    0.1795419437000590
     0.1311589439045746    0.1169344785181810    0.8774419447740004
     0.1299101561168939    0.6180694705834677    0.8716411339623955
     0.6325577098351297    0.1152087536813914    0.8638005717683896
     0.6297644862216693    0.6159094099145652    0.8673793541196466
     0.0386338147058021    0.3768784689244853    0.8480359154417584
     0.0394710769786776    0.8754944100634571    0.8502549122827138
     0.5464031958285508    0.3774465685114462    0.8529678023071812
     0.5449733389416606    0.8751319982676317    0.8457064533751193
     0.2925614575172329    0.1269955911809838    0.6587875216483228
     0.2917265825986603    0.6284100800632219    0.6527011532960215
     0.7937238617337211    0.1254209828238553    0.6431812751052328
     0.7909259931796728    0.6265359734104187    0.6447667286512637
     0.3821600629200187    0.3665750653014793    0.6382441111056417
     0.3796509272991498    0.8664650400173763    0.6297403425769863
     0.8786513053911352    0.3674283556888305    0.6234280912865527
     0.8786148742039916    0.8675341486852056    0.6261637673217566
     0.1048974077239552    0.2762200296031191    0.6231656596600573
     0.1043706528183910    0.7761970179500155    0.6227366259347478
     0.6092340060908317    0.2758615503390064    0.6264835620477842
     0.6059781957140489    0.7750664002072414    0.6182935344125585
     0.0952724698862298    0.4736393954795450    0.6184253263840169
     0.0955002609572529    0.9735691213935386    0.6211459107158186
     0.5980195427899903    0.4725061298799613    0.6201066831679155
     0.5965913116804705    0.9722287658248084    0.6164912679412413
     0.3944643558823943    0.0283749990342274    0.3864137137559412
     0.3929781234596523    0.5251204463191000    0.3813655877051160
     0.8932765768332288    0.0253153098076032    0.3705998846151719
     0.8928314290798328    0.5261378249957975    0.3713304406645866
     0.1423658805733714    0.2774764936337525    0.1214359639182658
     0.1398774463830374    0.7752284915297346    0.1255311522932268
     0.6456100554038238    0.2754554191514278    0.1250491823192608
     0.6427852518345752    0.7760049257517759    0.1240297916329876
     0.1199776186904314    0.1149173633116672    0.3663990652044044
     0.1184498232505761    0.6174353871006932    0.3651454772279352
     0.6211849683167222    0.1204745176011480    0.3784597209462030
     0.6200572527887256    0.6159316849918819    0.3738104089894209
     0.2031192977659762    0.3791485687015717    0.3477846978594292
     0.2066368202447915    0.8762692160782648    0.3520040463474257
     0.7112125981667708    0.3756261387081026    0.3510112561785151
     0.7093844037995917    0.8773000059480470    0.3489865333185003
     0.4563695403315860    0.1303182703211761    0.1617688865315557
     0.4579250996203861    0.6248672327954458    0.1542377616099079
     0.9591828238654722    0.1257443412445882    0.1444503118667841
     0.9563199076489018    0.6260495475007317    0.1437373766435704
     0.3690378079544061    0.3682974383756637    0.1332354658530791
     0.3678859416240282    0.8641335252932456    0.1342568726830695
     0.8710752371113051    0.3668860792484956    0.1265240640919240
     0.8687418541524298    0.8675778825442935    0.1247475227535823
     0.3487977798353409    0.2221548445837041    0.8889098113175489
     0.3465553371173896    0.7237658161371837    0.8844358913616381
     0.8477339284943047    0.2226769481260624    0.8741946171347764
     0.8449693212535994    0.7233241625723281    0.8752826325483269
     0.1533410151047156    0.4744238133407235    0.1153590895703749
     0.1527321576661549    0.9717394310294187    0.1205048200375925
     0.6543192190095191    0.4729720702477002    0.1215042356746269
     0.6516905252587123    0.9733285601922070    0.1185986006318823
     0.4040384074344982    0.2257867918495502    0.3923131679969991
     0.4029810497398049    0.7221538626580352    0.3832007311056924
     0.9045505174572172    0.2224078838178331    0.3750597335411732
     0.9020873609128486    0.7232462740404623    0.3740810637265227
     0.3577495489101344    0.0249563748309268    0.8833776332603158
     0.3572513941754142    0.5269284320032420    0.8782979691833933
     0.8587394711356311    0.0256861365033382    0.8707207334363215
     0.8564934610075582    0.5261905130275425    0.8707790168835631

  0.00000000E+00  0.00000000E+00  0.00000000E+00
  0.00000000E+00  0.00000000E+00  0.00000000E+00
  0.00000000E+00  0.00000000E+00  0.00000000E+00
  0.00000000E+00  0.00000000E+00  0.00000000E+00
  0.00000000E+00  0.00000000E+00  0.00000000E+00
  0.00000000E+00  0.00000000E+00  0.00000000E+00
  0.00000000E+00  0.00000000E+00  0.00000000E+00
  0.00000000E+00  0.00000000E+00  0.00000000E+00
  0.00000000E+00  0.00000000E+00  0.00000000E+00
  0.00000000E+00  0.00000000E+00  0.00000000E+00
  0.00000000E+00  0.00000000E+00  0.00000000E+00
  0.00000000E+00  0.00000000E+00  0.00000000E+00
  0.00000000E+00  0.00000000E+00  0.00000000E+00
  0.00000000E+00  0.00000000E+00  0.00000000E+00
  0.00000000E+00  0.00000000E+00  0.00000000E+00
  0.00000000E+00  0.00000000E+00  0.00000000E+00
  0.00000000E+00  0.00000000E+00  0.00000000E+00
  0.00000000E+00  0.00000000E+00  0.00000000E+00
  0.00000000E+00  0.00000000E+00  0.00000000E+00
  0.00000000E+00  0.00000000E+00  0.00000000E+00
  0.00000000E+00  0.00000000E+00  0.00000000E+00
  0.00000000E+00  0.00000000E+00  0.00000000E+00
  0.00000000E+00  0.00000000E+00  0.00000000E+00
  0.00000000E+00  0.00000000E+00  0.00000000E+00
  0.00000000E+00  0.00000000E+00  0.00000000E+00
  0.00000000E+00  0.00000000E+00  0.00000000E+00
  0.00000000E+00  0.00000000E+00  0.00000000E+00
  0.00000000E+00  0.00000000E+00  0.00000000E+00
  0.00000000E+00  0.00000000E+00  0.00000000E+00
  0.00000000E+00  0.00000000E+00  0.00000000E+00
  0.00000000E+00  0.00000000E+00  0.00000000E+00
  0.00000000E+00  0.00000000E+00  0.00000000E+00
  0.00000000E+00  0.00000000E+00  0.00000000E+00
  0.00000000E+00  0.00000000E+00  0.00000000E+00
  0.00000000E+00  0.00000000E+00  0.00000000E+00
  0.00000000E+00  0.00000000E+00  0.00000000E+00
  0.00000000E+00  0.00000000E+00  0.00000000E+00
  0.00000000E+00  0.00000000E+00  0.00000000E+00
  0.00000000E+00  0.00000000E+00  0.00000000E+00
  0.00000000E+00  0.00000000E+00  0.00000000E+00
  0.00000000E+00  0.00000000E+00  0.00000000E+00
  0.00000000E+00  0.00000000E+00  0.00000000E+00
  0.00000000E+00  0.00000000E+00  0.00000000E+00
  0.00000000E+00  0.00000000E+00  0.00000000E+00
  0.00000000E+00  0.00000000E+00  0.00000000E+00
  0.00000000E+00  0.00000000E+00  0.00000000E+00
  0.00000000E+00  0.00000000E+00  0.00000000E+00
  0.00000000E+00  0.00000000E+00  0.00000000E+00
  0.00000000E+00  0.00000000E+00  0.00000000E+00
  0.00000000E+00  0.00000000E+00  0.00000000E+00
  0.00000000E+00  0.00000000E+00  0.00000000E+00
  0.00000000E+00  0.00000000E+00  0.00000000E+00
  0.00000000E+00  0.00000000E+00  0.00000000E+00
  0.00000000E+00  0.00000000E+00  0.00000000E+00
  0.00000000E+00  0.00000000E+00  0.00000000E+00
  0.00000000E+00  0.00000000E+00  0.00000000E+00
  0.00000000E+00  0.00000000E+00  0.00000000E+00
  0.00000000E+00  0.00000000E+00  0.00000000E+00
  0.00000000E+00  0.00000000E+00  0.00000000E+00
  0.00000000E+00  0.00000000E+00  0.00000000E+00
  0.00000000E+00  0.00000000E+00  0.00000000E+00
  0.00000000E+00  0.00000000E+00  0.00000000E+00
  0.00000000E+00  0.00000000E+00  0.00000000E+00
  0.00000000E+00  0.00000000E+00  0.00000000E+00
  0.00000000E+00  0.00000000E+00  0.00000000E+00
  0.00000000E+00  0.00000000E+00  0.00000000E+00
  0.00000000E+00  0.00000000E+00  0.00000000E+00
  0.00000000E+00  0.00000000E+00  0.00000000E+00
  0.00000000E+00  0.00000000E+00  0.00000000E+00
  0.00000000E+00  0.00000000E+00  0.00000000E+00
  0.00000000E+00  0.00000000E+00  0.00000000E+00
  0.00000000E+00  0.00000000E+00  0.00000000E+00
  0.00000000E+00  0.00000000E+00  0.00000000E+00
  0.00000000E+00  0.00000000E+00  0.00000000E+00
  0.00000000E+00  0.00000000E+00  0.00000000E+00
  0.00000000E+00  0.00000000E+00  0.00000000E+00
  0.00000000E+00  0.00000000E+00  0.00000000E+00
  0.00000000E+00  0.00000000E+00  0.00000000E+00
  0.00000000E+00  0.00000000E+00  0.00000000E+00
  0.00000000E+00  0.00000000E+00  0.00000000E+00
  0.00000000E+00  0.00000000E+00  0.00000000E+00
  0.00000000E+00  0.00000000E+00  0.00000000E+00
  0.00000000E+00  0.00000000E+00  0.00000000E+00
  0.00000000E+00  0.00000000E+00  0.00000000E+00
  0.00000000E+00  0.00000000E+00  0.00000000E+00
  0.00000000E+00  0.00000000E+00  0.00000000E+00
  0.00000000E+00  0.00000000E+00  0.00000000E+00
  0.00000000E+00  0.00000000E+00  0.00000000E+00
  0.00000000E+00  0.00000000E+00  0.00000000E+00
  0.00000000E+00  0.00000000E+00  0.00000000E+00
  0.00000000E+00  0.00000000E+00  0.00000000E+00
  0.00000000E+00  0.00000000E+00  0.00000000E+00
  0.00000000E+00  0.00000000E+00  0.00000000E+00
  0.00000000E+00  0.00000000E+00  0.00000000E+00
  0.00000000E+00  0.00000000E+00  0.00000000E+00
  0.00000000E+00  0.00000000E+00  0.00000000E+00
