System                                  
   1.0000000000000000     
     4.8549553820923483   -0.0367953149099071    1.3280626475698345
     2.2807883789763057    4.2868626097501741    1.3280010224736829
    -0.1669399645445082   -0.0994875315516691   10.2284983858582059
  Mn              O             
     6    12
Direct
     0.3382073620920579    0.1680478878462568   -0.0006338718130054
     0.1680000455101316    0.3382070355655059    0.4993731076792945
     0.0047383480293598    0.8345806844107637    0.9997622373499508
     0.5012199539390793    0.6714717326387821    0.4997682857132841
     0.8345312773858478    0.0047494641144479    0.4997684924044378
     0.6714388846205034    0.5012109022624156    0.9997720316196895
     0.7048487434546371    0.8667276122084717    0.9014344942731557
     0.8673209111237176    0.7053507437356428    0.4014264538747346
     0.5352008949036531    0.3705899329198785    0.4014648718696300
     0.4684188134659464    0.9721621508462579    0.5978177823602959
     0.3717285476465030    0.5346151735733849    0.9014491873507972
     0.8018852452983514    0.3045836586345484    0.5978309296367221
     0.0369907743768957    0.2014950419247777    0.9014553875246260
     0.2003835568732599    0.0375124996789821    0.4014567005724381
     0.3056871890242039    0.8013401460873127    0.0978195894674477
     0.9716124612992912    0.4678876375005309    0.0978142933724315
     0.6381620183119520    0.1354554680967447    0.0977975019124247
     0.1343426970900681    0.6387299524007631    0.5977819965434290

  0.00000000E+00  0.00000000E+00  0.00000000E+00
  0.00000000E+00  0.00000000E+00  0.00000000E+00
  0.00000000E+00  0.00000000E+00  0.00000000E+00
  0.00000000E+00  0.00000000E+00  0.00000000E+00
  0.00000000E+00  0.00000000E+00  0.00000000E+00
  0.00000000E+00  0.00000000E+00  0.00000000E+00
  0.00000000E+00  0.00000000E+00  0.00000000E+00
  0.00000000E+00  0.00000000E+00  0.00000000E+00
  0.00000000E+00  0.00000000E+00  0.00000000E+00
  0.00000000E+00  0.00000000E+00  0.00000000E+00
  0.00000000E+00  0.00000000E+00  0.00000000E+00
  0.00000000E+00  0.00000000E+00  0.00000000E+00
  0.00000000E+00  0.00000000E+00  0.00000000E+00
  0.00000000E+00  0.00000000E+00  0.00000000E+00
  0.00000000E+00  0.00000000E+00  0.00000000E+00
  0.00000000E+00  0.00000000E+00  0.00000000E+00
  0.00000000E+00  0.00000000E+00  0.00000000E+00
  0.00000000E+00  0.00000000E+00  0.00000000E+00
