System                                  
   1.0000000000000000     
     3.7892852059170470    0.4603173273675009   -2.0964198810933627
     1.2701084327805838    4.8651688598232230   -2.8000561018905863
     0.6373753923522059   -0.4766004150532637    5.1685302328191813
  Fe              O             
     1     6
Direct
     0.0289424430485491    0.0268473635467396   -0.0013232340624593
    -0.0144735436315313    0.7891534028484396    0.5965415075470989
     0.3343763409363420    0.1691944777322098    0.0818035925011047
     0.5955596536651190    0.2388414784635713    0.8233141182574559
     0.2973084561792561    0.7378081934908389    0.1416992090653760
     0.7957151913782279    0.8143682238163464    0.9621941449963282
     0.9582502613698661    0.2174682334593259    0.3985325747584157

  0.00000000E+00  0.00000000E+00  0.00000000E+00
  0.00000000E+00  0.00000000E+00  0.00000000E+00
  0.00000000E+00  0.00000000E+00  0.00000000E+00
  0.00000000E+00  0.00000000E+00  0.00000000E+00
  0.00000000E+00  0.00000000E+00  0.00000000E+00
  0.00000000E+00  0.00000000E+00  0.00000000E+00
  0.00000000E+00  0.00000000E+00  0.00000000E+00
