System                                  
   1.0000000000000000     
     3.9580484875931514    0.2905905448240770   -2.4477059545884874
     1.3766728242665269    4.6037977666594356   -2.8161880511563999
     0.3209122236086594   -0.2219678405354936    5.4332364706983496
  Fe              O             
     1     6
Direct
     0.0256100923419520    1.0215483280668480    1.0066318804371448
     0.0458229707077040    0.7751540584060788    0.6287020722795336
     0.2746638453200633    0.2292806529784026    0.1130272548260680
     0.6100909530733695    0.1950406791966255    0.7782287306000363
     0.3290015769843175    0.7737158761148343    0.2312899376301566
     0.7791918786448730    0.7922573137323263    0.8699066464977464
     0.9312974858735260    0.2066844648623552    0.3749753907926407

  0.00000000E+00  0.00000000E+00  0.00000000E+00
  0.00000000E+00  0.00000000E+00  0.00000000E+00
  0.00000000E+00  0.00000000E+00  0.00000000E+00
  0.00000000E+00  0.00000000E+00  0.00000000E+00
  0.00000000E+00  0.00000000E+00  0.00000000E+00
  0.00000000E+00  0.00000000E+00  0.00000000E+00
  0.00000000E+00  0.00000000E+00  0.00000000E+00
