System
1.0
9.96074 0.00011 -6e-05
4e-05 12.94709 0.00158
4e-05 -0.00102 9.42854
Li Mn P O 
11 16 16 64 
direct
0.5201185261227783 0.6216281020571205 0.6803829509833759 Li
0.2327192048395783 0.1209711629365424 0.1746074495125091 Li
0.7293687184447204 0.1242079121125224 0.1704046601856948 Li
0.745525371004773 0.6050437534859304 0.1820347187363649 Li
0.4784695803273348 0.8733118966095517 0.3275029481775733 Li
0.0068229236182489 0.4129975624020673 0.2947587299508797 Li
0.9817008276852837 0.8751264418902411 0.3240274937238494 Li
0.268305460939621 0.3749844031813816 0.8201171285827977 Li
0.2460174178816165 0.9068195201540434 0.7991854749625048 Li
0.7718784151933403 0.3759368034605124 0.8275972274931145 Li
0.7490988637409061 0.9071235537199411 0.7991287564309727 Li
0.4993489263849014 0.2486993447057683 0.9938249310093668 Mn
0.5021388283531244 0.7481335863339159 0.0045198507532758 Mn
0.0022694226245473 0.2505177273712493 0.9976369416552521 Mn
0.0026757913686887 0.7489220453536951 0.9967880066911432 Mn
0.24763633452848 0.2478794236783826 0.5038956456302126 Mn
0.2466557653594952 0.7458677897274513 0.4981445353792709 Mn
0.7493792474095348 0.2496391614985815 0.5057170273003019 Mn
0.7547876806249438 0.7489652924785087 0.5065505088741749 Mn
0.9950078677278569 0.0054399435760737 0.9925075976521438 Mn
0.0246337999469226 0.5053128402956074 0.9816379641314743 Mn
0.492548695203209 0.0044136766883413 0.9929687884373166 Mn
0.5043936186161949 0.4963526553822693 0.0044731146615173 Mn
0.2525886768140203 0.5103685821882663 0.4946581034345724 Mn
0.2365935097543349 0.0026820594130692 0.4993815952808004 Mn
0.7645721544945066 0.504028854661788 0.5078888655564765 Mn
0.7386275379715398 0.0039471603626798 0.4984173518130636 Mn
0.239155184017699 0.3608546421020483 0.1863200344755831 P
0.2301833006559219 0.8811447696795802 0.1724181461045708 P
0.7398103779650186 0.3632999308761291 0.1892796610124738 P
0.7304616653717579 0.8811514072426119 0.1751365140106639 P
0.0211089443761084 0.3791261528836362 0.6667254863825475 P
0.014478481352829 0.8619709071587921 0.6843157837158381 P
0.5190270861589814 0.3822980258993132 0.6727573302879901 P
0.5124921748974842 0.8603795048873881 0.6875559074110886 P
0.254054882789333 0.1346803794761294 0.8152249008919191 P
0.2710496381270796 0.6192943327288203 0.8291718995898646 P
0.7546023259467369 0.1349466188721978 0.8170261237116377 P
0.7707048328891737 0.6183040227037309 0.828654479664475 P
0.4789859666931074 0.1182328168926894 0.328536291146501 P
0.49359129163612 0.631064218627058 0.3158348422083495 P
0.9777174971514838 0.1173043628758606 0.3288277417683351 P
0.9936151673863876 0.6359679178448501 0.312806902864384 P
0.0859645082663408 0.2815151628145284 0.6003264449931199 O
0.0803075218823599 0.7655586335962492 0.6255661840169532 O
0.5894412257300732 0.2898397409524627 0.6003119392083577 O
0.5731968127158276 0.7597950965234241 0.630105721750133 O
0.1794038715967212 0.2598171072544178 0.1295627450042684 O
0.1564280009786791 0.7885724054373545 0.1045859698863368 O
0.6671199133913499 0.2678901413160308 0.1309944007641961 O
0.66135638410642 0.7837980385735358 0.1099677084338381 O
0.3240641290939022 0.2330100778124204 0.8701944497026451 O
0.3467838674906105 0.7130068789730213 0.8953865064101677 O
0.8243053629269298 0.2327854292588907 0.874183734440544 O
0.8402513938097688 0.7143883682719447 0.8957569330705332 O
0.4082761527669676 0.2146809474842515 0.3943548097943453 O
0.4239906436523805 0.7282657894782548 0.3730545407235759 O
0.9031392258717104 0.2109564293973174 0.3954663188859149 O
0.9240922798352376 0.733558131825241 0.3696449470351821 O
0.326762585629007 0.0345190238012843 0.8618644985228756 O
0.3263790207416387 0.5154308133262172 0.8867199369825617 O
0.8274530251414137 0.034708779225433 0.8625853007637493 O
0.8329817833720058 0.5171531127122068 0.8855330984366007 O
0.4205186333797896 0.017064230887221 0.3886154818279366 O
0.4251726708054893 0.5305542949589624 0.3658431937660271 O
0.922266179073939 0.0147148685431536 0.3877361346991221 O
0.9149076593354931 0.5367855151118411 0.3549696345131535 O
0.3896352959014437 0.371527605625667 0.1425738043464534 O
0.383366994925935 0.8748331263978097 0.1361343035937865 O
0.89010810903466 0.3623876253608064 0.1479051150615961 O
0.8825229020936862 0.8775305489760354 0.1368140329753063 O
0.2660498983782484 0.135391588687472 0.6460646689601642 O
0.3025306479251098 0.623174480260803 0.6657452269846945 O
0.7633369765282307 0.1366303695233699 0.6477969569726395 O
0.7846284592780042 0.6241800837025525 0.6644248170811952 O
0.1079469510096309 0.1310309227905851 0.8731566913700465 O
0.1214845512615842 0.6286530811171699 0.8718063682457411 O
0.6083620785847983 0.1300799804451774 0.8748863232470743 O
0.618637437306437 0.6215187403832131 0.8744531065082718 O
0.1310718266390027 0.1243841863290138 0.3630136158410704 O
0.1408674768596185 0.6289905514757121 0.3616840831144997 O
0.6324161439760418 0.1238697243118432 0.3619970675926981 O
0.645177769601151 0.6294908530398676 0.3606902824841789 O
0.0517087367712612 0.37528926816832 0.8317941456189383 O
0.0297608737599368 0.8626479110049827 0.8563867191610002 O
0.548339626831445 0.3757884211081284 0.8372475656818004 O
0.5308196578320853 0.8614336384887928 0.8586937878123191 O
0.2250713893367608 0.3628409892995228 0.357017403147457 O
0.2029002848599674 0.8760755521298701 0.3373430015060623 O
0.7176581031059869 0.364605873706801 0.3589248291412594 O
0.7016414767183329 0.8765505481536708 0.3396070404044997 O
0.150830752036967 0.4520984042943998 0.1415282351427652 O
0.1720818915042582 0.9836999710903482 0.1157628899018769 O
0.6714772236646492 0.4640603572813069 0.138519396898867 O
0.6675956767592036 0.9809329526800975 0.1159749006033375 O
0.4487070383496568 0.1226050597964062 0.1643829779759516 O
0.4850829803718804 0.6316999011630113 0.1461900738797619 O
0.9479035431485149 0.1224361713790782 0.1645039442041225 O
0.9710472827973355 0.6364564244822714 0.1426172707532205 O
0.3665972309257836 0.3762732289647118 0.6351300892968269 O
0.3635573033173254 0.8705106346859405 0.6423621234993657 O
0.8659793700359562 0.3747366264907753 0.635631629370747 O
0.863885650733065 0.8693816555473964 0.640780017809921 O
0.0803775095035049 0.4771635839796917 0.6040437873115728 O
0.0956014336708504 0.9592997660142055 0.6471419475891442 O
0.5784822474521782 0.4844105282187429 0.6174532858771992 O
0.6003517806653728 0.9524564378210634 0.6450680464335795 O
