System                                  
   1.0000000000000000     
    -2.1273181733064908    2.1273171407830347    6.2995896224258630
     2.1273263909193001   -2.1273206467532799    6.2995938170913446
     2.1273250770717680    2.1273274235578121   -6.2995908453382556
  Li              Y               Sn            
     2     1     2
Direct
     0.7500000627972270    0.2500012593299692    0.5000006048215356
     0.2500004140940106    0.7499980733032265    0.4999992662405507
    -0.0000002785293554    0.0000006103616540    0.0000003462754768
     0.3887806791165567    0.3887803477266270   -0.0000013790858109
     0.6112191225215604    0.6112197092785232    0.0000011617482479

  0.00000000E+00  0.00000000E+00  0.00000000E+00
  0.00000000E+00  0.00000000E+00  0.00000000E+00
  0.00000000E+00  0.00000000E+00  0.00000000E+00
  0.00000000E+00  0.00000000E+00  0.00000000E+00
  0.00000000E+00  0.00000000E+00  0.00000000E+00
