Mn12O24                                 
   1.00000000000000     
    11.4294996262000002    0.0000000000000000    0.0000000000000000
    -5.7149085917000004    9.8966311518999994    0.0000000000000000
     0.0030943225000000   -0.0162083707000000   15.2881275770999991
   Mn   O    Ni   Na
    36    96    12     1
Direct
  0.0847354999122769  0.1701882722387843  0.3268204961774344
  0.0845171952152576  0.6700357355567031  0.3274706072842019
  0.5852854190419792  0.1709801467400151  0.3243938058710303
  0.5851531676923718  0.6697991855863109  0.3241132839081405
  0.3348262413124339  0.1702121682834639  0.3268752163396482
  0.3338495363129202  0.6697666573862628  0.3241324886423692
  0.8350401956567410  0.1709633934224683  0.3243400417901351
  0.8348696384317117  0.6700458062105420  0.3274615539076591
  0.3347394210039589  0.4201470722940568  0.3269062395715373
  0.3341086318517609  0.9197519248310388  0.3243001898122700
  0.8349305588304529  0.4204850837634429  0.3275252119585315
  0.8349420847727002  0.9197070751725339  0.3241837246479778
  0.1650777872322665  0.0795417632910929  0.6716917168945973
  0.1650066718399602  0.5793451564301104  0.6730968367454311
  0.6655718599904575  0.0805240757778491  0.6817503886205040
  0.6649101086548989  0.5794096081097381  0.6728815928707345
  0.1650678083258890  0.3295588367998831  0.6716201365932065
  0.1651381085291637  0.8297296391676743  0.6732425653901005
  0.6649370901909284  0.3295311628958832  0.6734810437338384
  0.6655350369145674  0.8289936639183867  0.6808652944270257
  0.4151578867600690  0.3295563963244007  0.6715131450338400
  0.4141106122284756  0.8289356307892201  0.6809941426070126
  0.9152052584370396  0.3294882190788518  0.6735663387908790
  0.9152573256421257  0.8296945659814192  0.6731316259809060
  0.4998995469457920  0.4999239981358769 -0.0001099015962766
  0.5005028697010708  0.0001300289225330 -0.0001169940721363
  0.0000781899142802  0.5000406695745440 -0.0000774376304334
  0.9995094311491356  0.9998955629292129  0.0001382253646817
  0.4999128219265492  0.2500100609371555 -0.0001003482418408
  0.5004954860175157  0.7504045800629519 -0.0001568641084894
  0.9994828051489857  0.2495775150490005  0.0001489703815562
  0.0001013147640828  0.7500208523718719 -0.0000448730801454
  0.2499612819312919  0.4999572482584197 -0.0000984962734384
  0.2499978448540080  0.0000148151494724 -0.0000782846982669
  0.7499724501888237  0.4999968361572504 -0.0000924928776513
  0.7500553321462859  0.0000356112364171  0.0000739356339647
 -0.0020870133327133  0.4960749773815769  0.6099714162067184
 -0.0031990380947056  0.9963518344612067  0.6099590764297134
  0.4981515643826578  0.4974661386878467  0.6095703690082311
  0.5004785506402312  0.9944938671781248  0.6148977082409737
 -0.0034190901075213  0.2443308580944862  0.6101040646238842
 -0.0017748600251521  0.7456911817394914  0.6098233045446642
  0.4983723125816785  0.2441101592498948  0.6100580510660768
  0.5003235326186261  0.7500470784153814  0.6141293418408638
  0.2499732950833088  0.4975073090546862  0.6096844306537627
  0.2503751069817440  0.9964280719323257  0.6099988527353435
  0.7488542890524121  0.4961287538843700  0.6098306073033052
  0.7446775374748725  0.9945122935566889  0.6148289384416288
  0.2483473968102154  0.2460371473707307  0.6080961107327411
  0.2521862092660889  0.7480864420803703  0.6118288934082529
  0.7462935416881378  0.2420117231524707  0.6123867883919044
  0.7466371940243514  0.7481646708999894  0.6116360750907964
  0.0005024046418856  0.0026482896834853  0.3890694013066884
  0.0019181916187435  0.5033217086954007  0.3902298950625777
  0.5037336317246668  0.0014547352956133  0.3865918293067222
  0.5025194176296800  0.5044613375542661  0.3891781382075993
  0.0005377881325388  0.2536319229479042  0.3892034050198450
  0.0018518932058041  0.7543529010148479  0.3901857237510928
  0.5024483318017093  0.2537137804027488  0.3892634378977369
  0.5034648037148932  0.7577478016491247  0.3863451149509618
  0.2514971494237617  0.0027682611782473  0.3891498359024568
  0.2512929582328705  0.5044191874328968  0.3891810044319379
  0.7470071861880454  0.0014292234992050  0.3864286952843376
  0.7507362051054585  0.5033797217515112  0.3902413275432655
  0.2513827029593045  0.2536067157201469  0.3905172084359192
  0.2532321159778743  0.7543730996503289  0.3892233106185279
  0.7506395752143065  0.2520009547787928  0.3892669324780861
  0.7503415313095664  0.7543979537025337  0.3891589768998170
  0.1675762451369477  0.0857518738813895  0.2643601522343012
  0.1665831106979187  0.5852209218140849  0.2636845659306086
  0.6690779832127450  0.0887581193952342  0.2597321515835239
  0.6678703461801629  0.5851922256736755  0.2636805657202660
  0.1676623294502192  0.3372679834091828  0.2642856163760573
  0.1669333965613705  0.8369280631918417  0.2637962649626334
  0.6679872673296922  0.3380482505238200  0.2638297634066808
  0.6689457652971202  0.8357770689734947  0.2595341321557981
  0.4179718947003201  0.0871199989211311  0.2621769462624603
  0.4176577262352258  0.5859915247751871  0.2621192848391738
  0.9186220572036563  0.0871523923300168  0.2621330993503675
  0.9181107048790712  0.5868038780859784  0.2641599963531945
  0.4190573867482946  0.3372711692461086  0.2643585639667450
  0.4160101649998595  0.8357256477523968  0.2595423241521104
  0.9194967517632793  0.3380872547912974  0.2638492409612138
  0.9194693168386693  0.8368762180887321  0.2637744035709874
  0.1672071363867242  0.0845222096341921  0.0626910039012115
  0.1671638154852659  0.5843578854904264  0.0627398919648592
  0.6674258630745767  0.0842640079485127  0.0628050949001338
  0.6672560100418893  0.5844212904552197  0.0627035510202495
  0.1671661452129296  0.3328451999185046  0.0627125234291648
  0.1672308085297210  0.8329285513137347  0.0627803040130625
  0.6672309184103394  0.3330089509221300  0.0627154117545941
  0.6674130252227124  0.8332969397844354  0.0627728009603976
  0.4167893605087001  0.0833472495884517  0.0630910012250717
  0.4167496764514769  0.5835982823206665  0.0630765662824368
  0.9162763746988891  0.0831986880716392  0.0634990889109311
  0.9167115242728613  0.5833909490984961  0.0631934361057727
  0.4156183604352773  0.3329094780781486  0.0627167760565594
  0.4157652799592029  0.8329614709549322  0.0626648426821029
  0.9157445895169009  0.3328056230410258  0.0627517825417958
  0.9156942652361459  0.8330486817039652  0.0627410342196620
  0.0842257949434380  0.1670296420879681  0.9372663579510333
  0.0844009088004794  0.6671279014355633  0.9371747738305544
  0.5843862816269396  0.1669633969750215  0.9372694257476418
  0.5843135791677154  0.6672916706089868  0.9372428395159068
  0.0831519699181292  0.4162444570463370  0.9367338429776335
  0.0832088896620019  0.9166780900428257  0.9367832985877642
  0.5832776374172420  0.4165844636756156  0.9365624162106001
  0.5838570633757199  0.9169030979666978  0.9366794812439507
  0.3327983531047107  0.1671026915909486  0.9371214026012259
  0.3328337329983619  0.6672137828349237  0.9372393005332000
  0.8324891430236668  0.1666427096674008  0.9372325266767038
  0.8327300456270801  0.6670623827258955  0.9372253573656576
  0.3327528475307857  0.4155110492012214  0.9371075463717901
  0.3328626252425664  0.9154627024494570  0.9372728773417406
  0.8326906855012662  0.4154967654884946  0.9372162766926050
  0.8325438716789382  0.9157699557677286  0.9372115547305023
  0.0814108270502533  0.1627399301576650  0.7348828495937050
  0.0802833711955160  0.6621852873688262  0.7353742628308612
  0.5799006174425478  0.1643086383927059  0.7392271882834589
  0.5799044682438097  0.6597532509597404  0.7382958263656263
  0.0822149571750194  0.4127406137978355  0.7359182521990074
  0.0821089189370274  0.9135115976906769  0.7358353878493353
  0.5811700572446583  0.4128504468751640  0.7357185047241075
  0.5816305151954975  0.9125603732653177  0.7443315076543391
  0.3319354183946270  0.1628114131905709  0.7348350882797379
  0.3304348278147525  0.6596811618984670  0.7384220537584253
  0.8350504122218448  0.1642095349010241  0.7391764566906339
  0.8323216225291429  0.6622321113248538  0.7352858964758485
  0.3321369446414039  0.4135060004687747  0.7345826642804997
  0.3303840630911046  0.9144526565047955  0.7388164540812898
  0.8325818959235705  0.4146031650900944  0.7356167721084609
  0.8347635033086483  0.9143756902250508  0.7386881837669220
  0.0847427094585541  0.4201506535465147  0.3270844543326316
  0.0847903228591312  0.9201701754637603  0.3270711269871565
  0.5847942431177635  0.4201863735246758  0.3271129539148159
  0.5846626274021506  0.9201273762037138  0.3187413115679369
  0.4150535260261860  0.0795734382124789  0.6741560650239365
  0.4149947108974308  0.5793840026308770  0.6734937879026177
  0.9152123290522445  0.0795629661298450  0.6740901103318326
  0.9150403135210952  0.5795611069822527  0.6723801680627433
  0.2499464242700635  0.2499948480525202 -0.0000995543890784
  0.2500360681599354  0.7500087231859668  0.0000402868745727
  0.7500012044977349  0.2500299898178289  0.0000323574918940
  0.7500135195198363  0.7500099279884950 -0.0000043171616175
  0.5836690341176511  0.9174201484748672  0.4997154957286926
