System
1.0
11.34143766954807 -0.0647836135991604 -0.2488026780888
-5.633701072879502 9.928851391039936 0.0710431474792025
0.0222419509143507 0.0786910209071783 9.203692477086669
Li Mn Co Ni O 
1 12 8 12 64 
direct
0.8382055112342776 0.1671825844595839 0.4025070481226241 Li
0.0825201043231758 0.4171114259773377 0.2103851736298989 Mn
0.0817099845892731 0.9154857085860073 0.2122816924022875 Mn
0.5817700203744198 0.4153704465696654 0.2113160794668172 Mn
0.5827269479024405 0.9171151149236642 0.2093050240075143 Mn
0.0840038180459528 0.1674950122658241 0.2098906613943912 Mn
0.081862482194314 0.66718629817987 0.2127642279315674 Mn
0.5821224272831489 0.1674053170730034 0.2117891459422345 Mn
0.5844073147344276 0.6678580058361887 0.2089996927335061 Mn
0.1647205174245391 0.0784865493535545 0.7071144328066745 Mn
0.1691739825192566 0.5834920288678191 0.7126888167343962 Mn
0.6690800774365109 0.0834898965239811 0.7122645912027523 Mn
0.6647437553084904 0.5785870756526784 0.7063159418957379 Mn
0.1707936490867588 0.3301718285840584 0.4853989670696611 Co
0.1663307676597345 0.8324994993022431 0.487728064853125 Co
0.6661752391002556 0.3323455447847735 0.4872978315365326 Co
0.6708910134978762 0.8302327911884998 0.4849581553422899 Co
0.333521400402152 0.1650711368220395 0.9847839283476603 Co
0.3367207877435544 0.6699715579444925 0.9847374549242242 Co
0.8358544339050771 0.1700787497653423 0.9850598644274641 Co
0.8329820816073026 0.6650332827256011 0.9850292758284546 Co
0.4151192206273213 0.0834649547569519 0.709053546351026 Ni
0.4208956136999027 0.5874167186641913 0.713517609240185 Ni
0.9207602181655038 0.0873336838661844 0.7139500143497942 Ni
0.9151338561888662 0.5834948270235241 0.7088738632182526 Ni
0.330457801419201 0.4149833486668348 0.2108529956864192 Ni
0.3298167872847168 0.9152863030870001 0.2145638100406881 Ni
0.8297447587511856 0.4152792044693329 0.2146891953764008 Ni
0.8305827500951471 0.9150348408982287 0.2112696395017573 Ni
0.4126413463207566 0.32741289662891 0.7073857933409421 Ni
0.4186392774228857 0.8346279570439088 0.714108508581419 Ni
0.918432937915709 0.3346301527962031 0.7142279418059899 Ni
0.9125189071664606 0.8273924295947768 0.7073004661144793 Ni
0.1669137174614303 0.0838415723042464 0.1023266493765542 O
0.1677004173672423 0.5854437041570457 0.1072755225416458 O
0.6680420194761258 0.0857698314832892 0.1060999458170257 O
0.6669568942832789 0.5839248159043764 0.1014288429643562 O
0.4168926191029373 0.3356773471407765 0.0949714174756121 O
0.4167593674791362 0.8374098415929269 0.0997784752920532 O
0.9159865629255639 0.3368103726300989 0.1012794606738223 O
0.9165825690037929 0.8358996400341335 0.0962899456127185 O
0.3323830280672672 0.1646278178700539 0.6062494744542444 O
0.3378952274269268 0.6717764803846888 0.6118551967301177 O
0.8379488713370384 0.1718013663744391 0.6118354666487357 O
0.8325987023947529 0.6648207834612406 0.6057568629582072 O
0.2628929723245961 0.0193810167483981 0.8378412593241409 O
0.2648338076890833 0.5260965397282255 0.8440288997475178 O
0.7647559397443658 0.0262445829819249 0.8439112989046881 O
0.762742582214075 0.5194291048257897 0.8372449716804671 O
0.2606280256111326 0.2355018946748436 0.8364958202653735 O
0.2642428012847113 0.7418442232779131 0.8402448350317477 O
0.7636195545653534 0.2420015138717465 0.8398854638038249 O
0.7602975845762143 0.7355474015514899 0.8359246971776365 O
0.3214167799537952 0.4063126146231463 0.5957398011790955 O
0.3342034816585879 0.9179401309084992 0.5927060986701345 O
0.8342991762113262 0.4180052154291072 0.5921958679360407 O
0.8213388485937634 0.9063253524412724 0.5955786811260363 O
0.2404639936051722 0.259715855360075 0.3417054687977626 O
0.2400755101255775 0.7600281698271008 0.344369721457482 O
0.7402236869928331 0.2601406958150054 0.3436003070537108 O
0.7408427359373155 0.7599536627719068 0.3407763642365839 O
0.0220024546337546 0.2603344521869319 0.3400564633312255 O
0.021469641616544 0.7606246632864958 0.3420825959906477 O
0.5215002916368494 0.260596468935803 0.3411228124081069 O
0.5222177441491876 0.7605644455723253 0.3391405952834731 O
0.0828412181463179 0.1624187851312169 0.5952668442888955 O
0.0865396156834958 0.6711962834498552 0.599511238126911 O
0.5863172100146186 0.1711497794152193 0.5988891614057968 O
0.5827208248203761 0.6622186360071851 0.5939338517036076 O
0.9976831423707041 0.9934084623909202 0.8079039170834014 O
0.9997920809197922 0.5005621308519859 0.810404456909843 O
0.4999514080781902 0.0005584270723879 0.8102573566754728 O
0.4979689381289359 0.4937046397651535 0.8074974767664779 O
0.9977125701488959 0.9987501779599358 0.3125416377825353 O
0.9978607137459142 0.4983149765076532 0.3148396358456195 O
0.4984706464253858 0.9985634037907759 0.313912173449368 O
0.4980455145733431 0.4989388506025199 0.3113655267632985 O
0.1658410490057995 0.3342640801198961 0.1070730278029884 O
0.1658038136190307 0.8337461216614048 0.1088959751152423 O
0.6663182006205748 0.333982222567435 0.1081423756344875 O
0.6666695629200585 0.8346677815403835 0.1063754031956124 O
0.4773472886614666 0.2375800758985968 0.8393511681300283 O
0.4829188124702052 0.7527121967963162 0.8528234878245404 O
0.9820129395984615 0.2522193594785284 0.8535829748665096 O
0.9768238950520689 0.7373925662713349 0.8394721882394809 O
0.0859411193463844 0.418047302460325 0.6011374851215839 O
0.0807323403209167 0.9146125359158367 0.5955563207598441 O
0.5804428220072503 0.4146084066507787 0.5947772197541221 O
0.5857690096852682 0.9181629765045404 0.6004142731326306 O
0.2401775979192259 0.4780061836663542 0.3432900240536829 O
0.237150751733088 0.9754175527302487 0.3447991556361272 O
0.7373114418535912 0.4753585001341115 0.3438483032273449 O
0.7407926025191818 0.9781409074133964 0.3421763330743393 O
0.4144326348351815 0.0855192121215044 0.1021450191458994 O
0.4160963455663442 0.5884064110250374 0.1006024982728345 O
0.916113260224039 0.0872763079574905 0.1012897999319319 O
0.9143764002961473 0.5849070251846322 0.1026455696819185 O
