System                                  
   1.0000000000000000     
     5.7122109305335309   -0.0080185330401268    8.5713978816334571
     2.7012685754049910    5.0058536001345963    8.4967637479527980
     0.1077288300811120   -0.0868589469362510   10.2270701646808959
  Rb              Fe              F             
     4     2    12
Direct
     0.8656894935435678    0.8814819009315397    0.8808538518993606
     0.1343087815919718    0.1183624256445922    0.1190057881199808
     0.2810863461385367    0.2864211801564886    0.2862080485971482
     0.7189381934596445    0.7134699049458149    0.7136944481067395
     0.0000727752235319    0.0001204185586958    0.0001110884387156
     0.4997124578188601    0.4997365362984664    0.4997400444860844
     0.3754113368241345    0.8458589779954643    0.3879939333538702
     0.6241466121318363    0.1535378373185640    0.6116652954840612
     0.6241425202417697    0.6112062292960788    0.1540564552791561
     0.1732718736524697    0.6098433964418504    0.6103641029791520
     0.7417832226648536    0.1836425030511416    0.1837751859707748
     0.2583718531100448    0.8165741783803613    0.8164342482893202
     0.1892619868138383    0.7369791032530996    0.1858485010274639
     0.8108944745779701    0.2632269350623748    0.8143579827277549
     0.8261074157355001    0.3897009041536716    0.3891906789697988
     0.8108821337553221    0.8144408598991534    0.2631838209711864
     0.1893143267455036    0.1857556445540355    0.7369859531069822
     0.3754169465760789    0.3884453121501657    0.8453368397647734

  0.00000000E+00  0.00000000E+00  0.00000000E+00
  0.00000000E+00  0.00000000E+00  0.00000000E+00
  0.00000000E+00  0.00000000E+00  0.00000000E+00
  0.00000000E+00  0.00000000E+00  0.00000000E+00
  0.00000000E+00  0.00000000E+00  0.00000000E+00
  0.00000000E+00  0.00000000E+00  0.00000000E+00
  0.00000000E+00  0.00000000E+00  0.00000000E+00
  0.00000000E+00  0.00000000E+00  0.00000000E+00
  0.00000000E+00  0.00000000E+00  0.00000000E+00
  0.00000000E+00  0.00000000E+00  0.00000000E+00
  0.00000000E+00  0.00000000E+00  0.00000000E+00
  0.00000000E+00  0.00000000E+00  0.00000000E+00
  0.00000000E+00  0.00000000E+00  0.00000000E+00
  0.00000000E+00  0.00000000E+00  0.00000000E+00
  0.00000000E+00  0.00000000E+00  0.00000000E+00
  0.00000000E+00  0.00000000E+00  0.00000000E+00
  0.00000000E+00  0.00000000E+00  0.00000000E+00
  0.00000000E+00  0.00000000E+00  0.00000000E+00
