System
1.0
5.633291455016146 -8.3228014578e-05 8.459588489334246
2.5588313597323844 5.018617735113731 8.459611255653634
-0.0001788117109183 -6.48134692869e-05 10.163610931100823
Rb Fe F 
4 2 12 
direct
0.8748402214688813 0.8748346083543317 0.874836437764848 Rb
0.126374854977268 0.1263779906653863 0.1263772714542481 Rb
0.2822444438701778 0.2822418853561832 0.2822432614764653 Rb
0.7119215604224176 0.7119216560184597 0.7119223334092076 Rb
0.000903264191426 0.0009038316671458 1.0009041178137899 Fe
0.5024491828958982 0.5024470175136448 0.5024470694096427 Fe
0.3800709858394829 0.8511585885970027 0.3800687263135221 F
0.607360788584549 0.1633947265583545 0.607362907249141 F
0.6073613477792629 0.6073630648309561 0.1633936916322783 F
0.1633948956861297 0.6073620685318968 0.6073602427502501 F
0.724157009477961 0.1978654117972666 0.1978659430149254 F
0.2680838106353771 0.8113440133627411 0.8113454324773357 F
0.1978683809760239 0.7241548837897138 0.1978668920954102 F
0.8113403761943747 0.2680903869584834 0.8113393872073933 F
0.8511624153791016 0.3800686794038021 0.3800677579320071 F
0.8113418168654057 0.8113397121414591 0.2680902161240752 F
0.1978675880512694 0.1978671503640417 0.7241548300880668 F
0.3800698073104247 0.3800685721806815 0.8511597493597249 F
