System
1.0
5.46892 0.02261 8.31103
2.50597 4.86104 8.31103
0.03694 0.02263 9.94903
Li Co O 
7 8 16 
direct
0.2500003092333596 0.2499987936145415 0.7499998880758593 b
0.25000042833444125 0.7499989377501333 0.25000005097277633 b
0.25000040628426906 0.7499989117028987 0.7500000431754411 b
0.7500006427052132 0.2499989217756024 0.2500000003320719 b
0.7500006281880927 0.24999887689824 0.7499999256562754 b
0.7500008330623567 0.7499989749905295 0.25000009348623026 b
0.7500006585993427 0.7499989098966889 0.7500000903710967 b
1.8500000368914792e-07 0.9999993665259741 0.9999999470211726 a
2.4662187069917284e-07 0.9999993413631201 0.49999987439199767 a
2.2747171228387544e-07 0.4999993118827787 0.9999999335132375 a
2.0114911596074425e-07 0.4999993839685108 0.49999991710529584 a
0.5000001638932773 0.9999993332718216 0.999999964593779 a
0.500000246286377 0.9999993616087017 0.4999998904667412 a
0.5000002382084254 0.49999934807312296 0.9999999201058334 a
0.5000002045326807 0.4999993618958004 0.499999907839328 a
0.12972489849991944 0.1297237805321818 0.12973129940909436 c
0.12972509496057089 0.12972375144226708 0.629731183821983 c
0.12972506135602047 0.6297234282656936 0.12973131418907152 c
0.12972500129889225 0.6297235497324529 0.6297314204747974 c
0.629725220303102 0.1297234749632571 0.12973117967945302 c
0.6297253940608692 0.1297234486345493 0.6297310327902932 c
0.6297254424223117 0.6297232365525038 0.129731104906072 c
0.629725451192428 0.6297234885172485 0.629731182769049 c
0.37027515939881245 0.3702751533552102 0.3702687769702764 c
0.37027529966359235 0.37027536994879706 0.8702688477159629 c
0.37027526352919554 0.8702751499654452 0.37026897199934866 c
0.3702754119966516 0.8702751891890403 0.8702687519302275 c
0.8702756597436229 0.3702750713949324 0.3702686022307968 c
0.8702755836541413 0.3702752057757998 0.8702686191400721 c
0.8702755460224784 0.8702748726899727 0.37026874380424013 c
0.8702757502354254 0.8702749010380839 0.8702686927339413 c
