System                                  
   1.0000000000000000     
     5.6043442307923534   -0.0000011413063669   -0.0000041495918721
    -0.0000034902714650    2.4393982496159636    4.2174192242335895
    -0.0000024984424104   -2.4393819530329344    4.2174099676528360
  Ag              Sn            
     2     2
Direct
     0.0000000382918897    0.3334586765380964    0.3334594489901631
     0.4999999791966101    0.6665413214367000    0.6665405477119031
     0.5000000408585475    0.3328931738344517    0.3328940293181083
    -0.0000000583470480    0.6671068281907504    0.6671059739798255

  0.00000000E+00  0.00000000E+00  0.00000000E+00
  0.00000000E+00  0.00000000E+00  0.00000000E+00
  0.00000000E+00  0.00000000E+00  0.00000000E+00
  0.00000000E+00  0.00000000E+00  0.00000000E+00
