System                                  
   1.0000000000000000     
    11.4009387477082118   -0.1270461853059910   -0.2333408100202317
    -5.7172201767325017    9.9979219821615430    0.0770862630575056
     0.0362140596339119    0.0921245990614989    9.2636120848112711
  Li              Mn              Co              Ni              O             
     3    12     8    12    64
Direct
     0.3319251392270102    0.1626460135982365    0.4031190903751003
     0.3313525290412474    0.6620212984095811    0.4036683175765640
     0.8335354845207789    0.1672340298510166    0.4028127878866032
     0.0847752153150582    0.4141330935942295    0.2094419433966932
     0.0846475045554383    0.9134217996433216    0.2115375852325802
     0.5855916418673697    0.4202231314480642    0.2121812745827817
     0.5850734014287898    0.9195829798391646    0.2119846476037167
     0.0851648994428568    0.1659016938071778    0.2111115084170399
     0.0846577835514738    0.6669430095357352    0.2109911827401210
     0.5842579650219784    0.1715002871365719    0.2073696010085980
     0.5858095145156904    0.6719694223000058    0.2089023791582514
     0.1655674574596946    0.0811718671674969    0.7147268962018096
     0.1658986876867055    0.5824659228986410    0.7124000604764312
     0.6670336321877822    0.0824122722763912    0.7122586594538995
     0.6664666698084329    0.5831885277848297    0.7097659029483192
     0.1683630435428560    0.3301869267107841    0.4863610706050755
     0.1669269703869407    0.8284818793312346    0.4850278623365890
     0.6681385564470019    0.3378645509040739    0.4858925666877198
     0.6650320720435815    0.8338899347129992    0.4882480044085468
     0.3406435004372763    0.1741065878218816    0.9783115432832572
     0.3399885730575732    0.6733997360299374    0.9780994542363475
     0.8402013950475479    0.1653224072036772    0.9785395989085851
     0.8390501289453259    0.6682028407326129    0.9786152496827267
     0.4172632764859299    0.0856311265521041    0.7115978835391195
     0.4174229298868550    0.5865633862305316    0.7119006356654752
     0.9145541815467289    0.0806918558214112    0.7157430712540522
     0.9142984844431198    0.5846290641322076    0.7104437415105537
     0.3326626293378384    0.4164018061282067    0.2070204581648410
     0.3326317819587506    0.9165597962393952    0.2070330609277430
     0.8330232590997858    0.4175877566400528    0.2068350357127877
     0.8323123727443870    0.9168377815241424    0.2094394383749707
     0.4138126213553067    0.3317522663592001    0.7117763274779312
     0.4136133284646467    0.8319974116012349    0.7123269581467350
     0.9190412849745133    0.3309932446094904    0.7115609334449370
     0.9151518601633163    0.8308735971139074    0.7129285619082198
     0.1717882456309374    0.0854911949283044    0.1056881394094617
     0.1723957405625604    0.5854945554695625    0.1050653655286669
     0.6713869231589324    0.0879028416656419    0.1058478337188455
     0.6711719222880790    0.5881291581275707    0.1047311767150846
     0.4183740919457493    0.3323634960493064    0.0976064610094804
     0.4179248609914891    0.8317522837143365    0.0982801538046264
     0.9199184228329238    0.3272658161029797    0.0952976501332209
     0.9179432887507343    0.8242959130605052    0.0962735551920513
     0.3336859629244694    0.1687186985317999    0.6115835448796324
     0.3348833910123271    0.6705830526109137    0.6109729506543177
     0.8355270967460405    0.1642570395100993    0.6112763298521202
     0.8352305446238596    0.6703089822146346    0.6103443275623751
     0.2645249526790504    0.0266868860077043    0.8449751699017792
     0.2638436730613766    0.5266871524542871    0.8432549575203998
     0.7611095036896718    0.0189553904979064    0.8406601273077015
     0.7615003452145128    0.5233165575892494    0.8400601103474727
     0.2622037704247374    0.2397767390851105    0.8401379861385838
     0.2616108827633380    0.7399367286706612    0.8391870908820269
     0.7647174755075946    0.2348039533820639    0.8419486698318028
     0.7636853961518941    0.7383937534148215    0.8400340448503028
     0.3213094692747883    0.4075927528146615    0.5978853260671519
     0.3225868594566127    0.9076829761179284    0.5974800313636388
     0.8196969006610632    0.4131772874715468    0.5984045663428409
     0.8359275644472517    0.9183241016594320    0.5962934947946534
     0.2334101595728420    0.2518822394074331    0.3478249494358622
     0.2332233458630094    0.7514812628884513    0.3472314211137623
     0.7378795199378539    0.2615961808406360    0.3425438145620350
     0.7354698742656312    0.7619692799235872    0.3443991521335552
     0.0200513626126868    0.2577751325947468    0.3380683045812600
     0.0222709114793699    0.7583227595939157    0.3380444627193953
     0.5190659139819064    0.2605504055498484    0.3372248018957655
     0.5185116250364364    0.7602127489550267    0.3378832039603251
     0.0789803257779387    0.1605276923035534    0.6008999052965650
     0.0799311671581424    0.6612711449712774    0.5965857689197017
     0.5873779746756322    0.1717690341026949    0.6008446683706069
     0.5845709348451625    0.6692943066306278    0.6001169892045536
     0.9960248460427078    0.9953957712345106    0.8131244485378891
     0.9970785189759264    0.4983510170798732    0.8082712632087843
     0.4969244900739178    0.9971581775090792    0.8089869627879793
     0.4966812645288027    0.4968889518121378    0.8082033029728285
     0.9993527553749596    0.9960969035569083    0.3081507151930705
     0.9985576707317140    0.4959642020907709    0.3068141160740147
     0.4980987945126074    0.0016892728866991    0.3069548948963987
     0.4981931544905382    0.5011885153074659    0.3069137034583667
     0.1684175297061437    0.3330438633880025    0.1081090469854740
     0.1684540521339677    0.8334324180268529    0.1078784383945916
     0.6680475703482969    0.3391080666427184    0.1075624307064993
     0.6678616367582669    0.8387592456753069    0.1086559418702078
     0.4808017714855914    0.2501651972631694    0.8457996289079803
     0.4798995220372104    0.7498937419576346    0.8460667160943743
     0.9805311273533975    0.2283451522123580    0.8467012154808800
     0.9800070750078579    0.7408402464345468    0.8405886324481473
     0.0837413722584119    0.4181456837420221    0.5988174596203669
     0.0820104612401450    0.9164686125332751    0.6038466947308773
     0.5790579880714202    0.4192743182937915    0.5965252677136379
     0.5801775891356115    0.9166605043073555    0.6018801666258029
     0.2370281553274330    0.4755893061738533    0.3453726296959281
     0.2367488793384873    0.9756214682720654    0.3457803480506036
     0.7342803711853569    0.4767929359801238    0.3487584569463066
     0.7323975452094130    0.9799043160313378    0.3506814533318059
     0.4196145563382951    0.0970349656194367    0.0951972160477309
     0.4190299249358686    0.5965412786648675    0.0951751327311108
     0.9174290371998134    0.0875146543583817    0.0998877362397769
     0.9183935892893387    0.5890520127058148    0.0957685711533103

  0.00000000E+00  0.00000000E+00  0.00000000E+00
  0.00000000E+00  0.00000000E+00  0.00000000E+00
  0.00000000E+00  0.00000000E+00  0.00000000E+00
  0.00000000E+00  0.00000000E+00  0.00000000E+00
  0.00000000E+00  0.00000000E+00  0.00000000E+00
  0.00000000E+00  0.00000000E+00  0.00000000E+00
  0.00000000E+00  0.00000000E+00  0.00000000E+00
  0.00000000E+00  0.00000000E+00  0.00000000E+00
  0.00000000E+00  0.00000000E+00  0.00000000E+00
  0.00000000E+00  0.00000000E+00  0.00000000E+00
  0.00000000E+00  0.00000000E+00  0.00000000E+00
  0.00000000E+00  0.00000000E+00  0.00000000E+00
  0.00000000E+00  0.00000000E+00  0.00000000E+00
  0.00000000E+00  0.00000000E+00  0.00000000E+00
  0.00000000E+00  0.00000000E+00  0.00000000E+00
  0.00000000E+00  0.00000000E+00  0.00000000E+00
  0.00000000E+00  0.00000000E+00  0.00000000E+00
  0.00000000E+00  0.00000000E+00  0.00000000E+00
  0.00000000E+00  0.00000000E+00  0.00000000E+00
  0.00000000E+00  0.00000000E+00  0.00000000E+00
  0.00000000E+00  0.00000000E+00  0.00000000E+00
  0.00000000E+00  0.00000000E+00  0.00000000E+00
  0.00000000E+00  0.00000000E+00  0.00000000E+00
  0.00000000E+00  0.00000000E+00  0.00000000E+00
  0.00000000E+00  0.00000000E+00  0.00000000E+00
  0.00000000E+00  0.00000000E+00  0.00000000E+00
  0.00000000E+00  0.00000000E+00  0.00000000E+00
  0.00000000E+00  0.00000000E+00  0.00000000E+00
  0.00000000E+00  0.00000000E+00  0.00000000E+00
  0.00000000E+00  0.00000000E+00  0.00000000E+00
  0.00000000E+00  0.00000000E+00  0.00000000E+00
  0.00000000E+00  0.00000000E+00  0.00000000E+00
  0.00000000E+00  0.00000000E+00  0.00000000E+00
  0.00000000E+00  0.00000000E+00  0.00000000E+00
  0.00000000E+00  0.00000000E+00  0.00000000E+00
  0.00000000E+00  0.00000000E+00  0.00000000E+00
  0.00000000E+00  0.00000000E+00  0.00000000E+00
  0.00000000E+00  0.00000000E+00  0.00000000E+00
  0.00000000E+00  0.00000000E+00  0.00000000E+00
  0.00000000E+00  0.00000000E+00  0.00000000E+00
  0.00000000E+00  0.00000000E+00  0.00000000E+00
  0.00000000E+00  0.00000000E+00  0.00000000E+00
  0.00000000E+00  0.00000000E+00  0.00000000E+00
  0.00000000E+00  0.00000000E+00  0.00000000E+00
  0.00000000E+00  0.00000000E+00  0.00000000E+00
  0.00000000E+00  0.00000000E+00  0.00000000E+00
  0.00000000E+00  0.00000000E+00  0.00000000E+00
  0.00000000E+00  0.00000000E+00  0.00000000E+00
  0.00000000E+00  0.00000000E+00  0.00000000E+00
  0.00000000E+00  0.00000000E+00  0.00000000E+00
  0.00000000E+00  0.00000000E+00  0.00000000E+00
  0.00000000E+00  0.00000000E+00  0.00000000E+00
  0.00000000E+00  0.00000000E+00  0.00000000E+00
  0.00000000E+00  0.00000000E+00  0.00000000E+00
  0.00000000E+00  0.00000000E+00  0.00000000E+00
  0.00000000E+00  0.00000000E+00  0.00000000E+00
  0.00000000E+00  0.00000000E+00  0.00000000E+00
  0.00000000E+00  0.00000000E+00  0.00000000E+00
  0.00000000E+00  0.00000000E+00  0.00000000E+00
  0.00000000E+00  0.00000000E+00  0.00000000E+00
  0.00000000E+00  0.00000000E+00  0.00000000E+00
  0.00000000E+00  0.00000000E+00  0.00000000E+00
  0.00000000E+00  0.00000000E+00  0.00000000E+00
  0.00000000E+00  0.00000000E+00  0.00000000E+00
  0.00000000E+00  0.00000000E+00  0.00000000E+00
  0.00000000E+00  0.00000000E+00  0.00000000E+00
  0.00000000E+00  0.00000000E+00  0.00000000E+00
  0.00000000E+00  0.00000000E+00  0.00000000E+00
  0.00000000E+00  0.00000000E+00  0.00000000E+00
  0.00000000E+00  0.00000000E+00  0.00000000E+00
  0.00000000E+00  0.00000000E+00  0.00000000E+00
  0.00000000E+00  0.00000000E+00  0.00000000E+00
  0.00000000E+00  0.00000000E+00  0.00000000E+00
  0.00000000E+00  0.00000000E+00  0.00000000E+00
  0.00000000E+00  0.00000000E+00  0.00000000E+00
  0.00000000E+00  0.00000000E+00  0.00000000E+00
  0.00000000E+00  0.00000000E+00  0.00000000E+00
  0.00000000E+00  0.00000000E+00  0.00000000E+00
  0.00000000E+00  0.00000000E+00  0.00000000E+00
  0.00000000E+00  0.00000000E+00  0.00000000E+00
  0.00000000E+00  0.00000000E+00  0.00000000E+00
  0.00000000E+00  0.00000000E+00  0.00000000E+00
  0.00000000E+00  0.00000000E+00  0.00000000E+00
  0.00000000E+00  0.00000000E+00  0.00000000E+00
  0.00000000E+00  0.00000000E+00  0.00000000E+00
  0.00000000E+00  0.00000000E+00  0.00000000E+00
  0.00000000E+00  0.00000000E+00  0.00000000E+00
  0.00000000E+00  0.00000000E+00  0.00000000E+00
  0.00000000E+00  0.00000000E+00  0.00000000E+00
  0.00000000E+00  0.00000000E+00  0.00000000E+00
  0.00000000E+00  0.00000000E+00  0.00000000E+00
  0.00000000E+00  0.00000000E+00  0.00000000E+00
  0.00000000E+00  0.00000000E+00  0.00000000E+00
  0.00000000E+00  0.00000000E+00  0.00000000E+00
  0.00000000E+00  0.00000000E+00  0.00000000E+00
  0.00000000E+00  0.00000000E+00  0.00000000E+00
  0.00000000E+00  0.00000000E+00  0.00000000E+00
  0.00000000E+00  0.00000000E+00  0.00000000E+00
  0.00000000E+00  0.00000000E+00  0.00000000E+00
