System
1.0
5.46892 0.02261 8.31103
2.50597 4.86104 8.31103
0.03694 0.02263 9.94903
Li Co O 
6 8 16 
direct
0.24999842625770405 0.7500006153710459 0.24999891578640362 d
0.2500010882577693 0.7500006174859811 0.7499989387452702 e
0.7500019220880562 0.24999737748713202 0.24999908208830945 d
0.7500027745753357 0.2500000868910822 0.7499981317239673 e
0.7500011333236971 0.7499981179479568 0.2500019694224593 e
0.7500001976191997 0.7499986582738561 0.7499987224063029 b
0.0009484896254913002 0.0009458574349058998 0.0009471130343775 c
0.000979012239379901 0.0009784696759328002 0.4996415656681299 h
0.0009783328297660234 0.49964305640964163 0.0009766766462064752 h
0.00035201125446043797 0.49902181404310914 0.49902583376434545 h
0.49964456343779345 0.0009774197060511997 0.0009763208513258642 h
0.4990232689545284 0.00035034662364340094 0.49902594327690897 h
0.4990223198707246 0.49902156262477887 0.0003545033608228242 h
0.4990539325024651 0.49905104510079157 0.49905049920458605 c
0.13016672709938856 0.1301655357593881 0.13017263168487936 c
0.12807435489088276 0.12807272443064968 0.6376146389755012 h
0.12807399019603252 0.637604530235749 0.12808452232488676 h
0.12687025886801023 0.63084138888866 0.6308508508681006 h
0.6376057334101427 0.1280731446559008 0.12808426829345332 h
0.6308429829274842 0.12686943064983516 0.6308504308120703 h
0.6308453977665993 0.6308425003852001 0.12687658006957203 h
0.6295875138653223 0.6295862243720286 0.6295955086683056 c
0.3698339387542517 0.3698344182508194 0.3698264082109274 c
0.3719255486491233 0.3719259603685945 0.8623886852518721 h
0.37192730062804447 0.8623973394320703 0.37191579188776636 h
0.37312854579189725 0.8691554758440304 0.8691495637808864 h
0.8623972079250051 0.37192724832496643 0.37191562693106534 h
0.8691553970365574 0.3731288493729965 0.8691493238579718 h
0.8691558764167792 0.8691557189999038 0.3731216750926533 h
0.8704137047320101 0.8704128877024165 0.8704077080401663 c
