System                                  
   1.0000000000000000     
     5.4492680751868905    0.0179090031118859   -0.1531106237265538
    -1.5345564645619514    6.1626310964842901   -1.9188722818792510
     0.0556468168494503    0.0070852558771974    8.5869835463607913
  Li              Au              S               O             
     1     1     4    14
Direct
     0.5000000217752334   -0.0000000409764387    0.0000000065876274
     0.4999999514140689    0.5000001664325499    0.5000000591451663
     0.9427121362301613    0.7377416647437095    0.7670671980421577
     0.0572881024668086    0.2622582711632461    0.2329327619760855
     0.6729399603644842    0.2991319055851319    0.7536420692592040
     0.3270597806257041    0.7008682643398768    0.2463579620231706
     0.0705458342833242    0.4931446129519239    0.1962254362318103
     0.9294542160720475    0.5068551998821463    0.8037744656642792
     0.3890098707517152    0.7375293492768283    0.0935377590204406
     0.6109901554799169    0.2624707012512812    0.9064622902992392
     0.2224589654145742    0.1530577011764651    0.1312657345475747
     0.7775414975476235    0.8469423166555820    0.8687343539965999
     0.5338362954633212    0.6027394919833268    0.2994171695485020
     0.2088284542185633    0.8344154971742647    0.7859345302938958
     0.7419508293296558    0.1357856696154270    0.6254503484642309
     0.4661636184827516    0.3972608650212550    0.7005831613601923
     0.1429247889600155    0.3286211977073593    0.4163212727953985
     0.8570751500217021    0.6713787506818949    0.5836787462325260
     0.7911717682736672    0.1655841550647739    0.2140652534528687
     0.2580486028246624    0.8642142602693973    0.3745494210590292

  0.00000000E+00  0.00000000E+00  0.00000000E+00
  0.00000000E+00  0.00000000E+00  0.00000000E+00
  0.00000000E+00  0.00000000E+00  0.00000000E+00
  0.00000000E+00  0.00000000E+00  0.00000000E+00
  0.00000000E+00  0.00000000E+00  0.00000000E+00
  0.00000000E+00  0.00000000E+00  0.00000000E+00
  0.00000000E+00  0.00000000E+00  0.00000000E+00
  0.00000000E+00  0.00000000E+00  0.00000000E+00
  0.00000000E+00  0.00000000E+00  0.00000000E+00
  0.00000000E+00  0.00000000E+00  0.00000000E+00
  0.00000000E+00  0.00000000E+00  0.00000000E+00
  0.00000000E+00  0.00000000E+00  0.00000000E+00
  0.00000000E+00  0.00000000E+00  0.00000000E+00
  0.00000000E+00  0.00000000E+00  0.00000000E+00
  0.00000000E+00  0.00000000E+00  0.00000000E+00
  0.00000000E+00  0.00000000E+00  0.00000000E+00
  0.00000000E+00  0.00000000E+00  0.00000000E+00
  0.00000000E+00  0.00000000E+00  0.00000000E+00
  0.00000000E+00  0.00000000E+00  0.00000000E+00
  0.00000000E+00  0.00000000E+00  0.00000000E+00
