System
1.0
5.284601743713353 0.0553292969418678 -0.0626217106939158
-1.4777377320883733 5.971971817619211 -1.9482130140115794
0.1898519940046048 -0.0692956170513574 8.362516715908239
Li Au S O 
1 1 4 14 
direct
0.5 -3.4073384201272995e-19 5.661977104469259e-19 Li
0.5 0.49999999999999994 0.5 Au
0.95745097710526 0.7423564723116353 0.763704775959729 S
0.0425490228947399 0.2576435276883642 0.23629522404027065 S
0.675791090199301 0.2959818728370898 0.7565562015057468 S
0.32420890980069866 0.7040181271629102 0.24344379849425352 S
0.05570326916256981 0.4950399840112726 0.20139643665248735 O
0.9442967308374309 0.5049600159887276 0.7986035633475133 O
0.3830503302812429 0.72945257705892 0.08203047020024351 O
0.6169496697187584 0.2705474229410803 0.9179695297997569 O
0.21215637393572 0.1425248568811251 0.12626456748042883 O
0.7878436260642798 0.8574751431188761 0.8737354325195716 O
0.5352771754829574 0.6000826430911183 0.29244000332330805 O
0.23074584536756015 0.8394635659654124 0.7776823215985461 O
0.7412081435390986 0.1195232001150685 0.622679766218239 O
0.46472282451704255 0.39991735690888114 0.7075599966766918 O
0.1317697708458204 0.3266397663382343 0.4233179083820793 O
0.8682302291541785 0.6733602336617655 0.5766820916179219 O
0.7692541546324404 0.16053643403458848 0.22231767840145414 O
0.2587918564609023 0.8804767998849307 0.37732023378176016 O
