System                                  
   1.0000000000000000     
     4.8447418743599622    3.0652949905654472    0.0037196429343690
    -4.8447418743599622    3.0652949905654472    0.0037196429343690
     0.0000000000000000    0.0335277430080023    6.2091579898282871
  Sr              Li              Si              N             
     3     4     2     6
Direct
     0.3089721618681054    0.6910278381318946    0.5000000000000000
     0.6910278381318946    0.3089721618681054    0.5000000000000000
     0.5000000000000000    0.5000000000000000    0.0000000000000000
     0.9623030982383369    0.3153182771736383    0.1205679007556100
     0.6846817228263617    0.0376969017616631    0.8794320992443900
     0.0376969017616631    0.6846817228263617    0.8794320992443900
     0.3153182771736383    0.9623030982383369    0.1205679007556100
     0.8900096034553258    0.8900096034553258    0.3264207492452584
     0.1099903965446742    0.1099903965446742    0.6735792507547416
     0.9516563594051703    0.6504690856311655    0.2035160001488165
     0.3495309143688345    0.0483436405948297    0.7964839998511835
     0.0483436405948297    0.3495309143688345    0.7964839998511835
     0.6504690856311655    0.9516563594051703    0.2035160001488165
     0.1828291368914350    0.1828291368914350    0.3779417321929301
     0.8171708631085650    0.8171708631085650    0.6220582678070699

  0.00000000E+00  0.00000000E+00  0.00000000E+00
  0.00000000E+00  0.00000000E+00  0.00000000E+00
  0.00000000E+00  0.00000000E+00  0.00000000E+00
  0.00000000E+00  0.00000000E+00  0.00000000E+00
  0.00000000E+00  0.00000000E+00  0.00000000E+00
  0.00000000E+00  0.00000000E+00  0.00000000E+00
  0.00000000E+00  0.00000000E+00  0.00000000E+00
  0.00000000E+00  0.00000000E+00  0.00000000E+00
  0.00000000E+00  0.00000000E+00  0.00000000E+00
  0.00000000E+00  0.00000000E+00  0.00000000E+00
  0.00000000E+00  0.00000000E+00  0.00000000E+00
  0.00000000E+00  0.00000000E+00  0.00000000E+00
  0.00000000E+00  0.00000000E+00  0.00000000E+00
  0.00000000E+00  0.00000000E+00  0.00000000E+00
  0.00000000E+00  0.00000000E+00  0.00000000E+00
