System
1.0
4.844741874359962 3.065294990565447 0.003719642934369
-4.844741874359962 3.065294990565447 0.003719642934369
0.0 0.0335277430080023 6.209157989828287
Sr Li Si N 
3 4 2 6 
direct
0.30897216186810533 0.6910278381318951 0.5 Sr
0.6910278381318951 0.3089721618681053 0.5 Sr
0.5000000000000001 0.5000000000000001 1.278496061018402e-22 Sr
0.9623030982383335 0.31531827717364014 0.1205679007556102 Li
0.6846817228263599 0.03769690176166638 0.8794320992443899 Li
0.03769690176166649 0.6846817228263599 0.8794320992443899 Li
0.31531827717364025 0.9623030982383335 0.1205679007556102 Li
0.8900096034553282 0.8900096034553281 0.3264207492452593 Si
0.10999039654467223 0.10999039654467223 0.6735792507547405 Si
0.9516563594051737 0.6504690856311682 0.2035160001488138 N
0.3495309143688319 0.04834364059482649 0.7964839998511863 N
0.048343640594826515 0.3495309143688319 0.7964839998511863 N
0.6504690856311683 0.9516563594051737 0.2035160001488138 N
0.18282913689143604 0.18282913689143607 0.3779417321929276 N
0.8171708631085641 0.8171708631085641 0.6220582678070724 N
