System                                  
   1.0000000000000000     
     4.5522043524452176    4.9912899807352646   -0.0319780799747375
    -4.5468925412012293    4.9864369263935089   -0.0321342116491080
     0.0010279881014012    1.7963483466621850    5.0544429517901532
  Sc              Si              O             
     2     4    12
Direct
     0.1039471919435359    0.8961050048728939    0.7499674687721519
     0.8961661554993460    0.1038277910346334    0.2500189200209350
     0.3801955544408747    0.2144716918334145    0.2365885392898396
     0.7853896463050813    0.6199534961917519    0.2633067561885865
     0.2145456978238953    0.3800740610559481    0.7367149790185880
     0.6197916274019891    0.7855630301431883    0.7634296062782694
     0.1073819291996375    0.6057981195278029    0.7019019896428847
     0.8925843210141862    0.3942119434170518    0.2980805521228708
     0.6417945443410386    0.6404421622148642    0.0494672620562027
     0.3595911385746553    0.3582104705657800    0.4505891628879786
     0.3581767883562980    0.3595852689570396    0.9505100334785571
     0.6403717571473395    0.6418027609190243    0.5494511505402033
     0.8079305130526307    0.9443788519733437    0.6480965197284000
     0.0556625267550076    0.1920237724429245    0.8518787636792041
     0.1921182996220146    0.0555539691811759    0.3518774037406897
     0.9443395721506760    0.8079747639434967    0.1481158448103219
     0.6058129462270317    0.1074452277406534    0.2018826541461363
     0.3941997901447773    0.8925776139850280    0.7981223935981780

  0.00000000E+00  0.00000000E+00  0.00000000E+00
  0.00000000E+00  0.00000000E+00  0.00000000E+00
  0.00000000E+00  0.00000000E+00  0.00000000E+00
  0.00000000E+00  0.00000000E+00  0.00000000E+00
  0.00000000E+00  0.00000000E+00  0.00000000E+00
  0.00000000E+00  0.00000000E+00  0.00000000E+00
  0.00000000E+00  0.00000000E+00  0.00000000E+00
  0.00000000E+00  0.00000000E+00  0.00000000E+00
  0.00000000E+00  0.00000000E+00  0.00000000E+00
  0.00000000E+00  0.00000000E+00  0.00000000E+00
  0.00000000E+00  0.00000000E+00  0.00000000E+00
  0.00000000E+00  0.00000000E+00  0.00000000E+00
  0.00000000E+00  0.00000000E+00  0.00000000E+00
  0.00000000E+00  0.00000000E+00  0.00000000E+00
  0.00000000E+00  0.00000000E+00  0.00000000E+00
  0.00000000E+00  0.00000000E+00  0.00000000E+00
  0.00000000E+00  0.00000000E+00  0.00000000E+00
  0.00000000E+00  0.00000000E+00  0.00000000E+00
