System                                  
   1.0000000000000000     
    11.4009387477082118   -0.1270461853059910   -0.2333408100202317
    -5.7172201767325017    9.9979219821615430    0.0770862630575056
     0.0362140596339119    0.0921245990614989    9.2636120848112711
  Li              Mn              Co              Ni              O             
    11    12     8    12    64
Direct
     0.1711359769485633    0.3345812294344034    0.8967021985093675
     0.1693015977487494    0.8391789612778561    0.8975684978502700
     0.6739677928645486    0.3378626976083324    0.8941327120511638
     0.6664900718186021    0.8357032656633805    0.8984052993673836
     0.4983934499039426    0.5011983500398696    0.4941433483254673
     0.4966069298800311    0.9923850965387330    0.4917743838188352
     0.9950260774221755    0.4988634872347689    0.4956677797985047
     0.3329758855930324    0.1649495952343053    0.3969187287261649
     0.3286946805714622    0.6618910650292543    0.4077669100126372
     0.8308821935537951    0.1633538250078324    0.3996850785109308
     0.8305324444996394    0.6651780810316937    0.4037953314212838
     0.0823998993157595    0.4138467620990585    0.2076280643553189
     0.0862314694949211    0.9181475015823373    0.2092540083913737
     0.5858687305812509    0.4170394990836155    0.2065073777137033
     0.5845967215555207    0.9155655487525493    0.2067437165624146
     0.0862825533614874    0.1671831355552585    0.2071405670936272
     0.0838970824969138    0.6687069408206412    0.2098822512049740
     0.5865553089934316    0.1701247479607997    0.2025677947418846
     0.5848436466001702    0.6700584831543882    0.2085516121611704
     0.1714564676123840    0.0826579595098710    0.7031436017006136
     0.1634420428797062    0.5819197011015126    0.7263617060631441
     0.6691804827491631    0.0803619512113945    0.7151748968627871
     0.6650463422101021    0.5841704332265008    0.7243043921896719
     0.1657632187713379    0.3267050992831163    0.4819910300791429
     0.1691347436300351    0.8334353623280049    0.4847076885066993
     0.6651614170461246    0.3283506776292022    0.4791291577017697
     0.6701729160362886    0.8344211861852412    0.4839952793171133
     0.3437647968340038    0.1748149200423113    0.9806392196043748
     0.3336316065128050    0.6681296466885595    0.9884750231990851
     0.8442561349544264    0.1712631480086261    0.9826502677615356
     0.8396973535448108    0.6727882835069986    0.9856640387940038
     0.4221566852964863    0.0885759596075990    0.7135151600184380
     0.4133290683621231    0.5836629490807729    0.7212223364735117
     0.9204738318850612    0.0869308184285501    0.7060182875060832
     0.9133992227309006    0.5837176769738205    0.7202061885048545
     0.3316920457283781    0.4181897151529497    0.2036594655386653
     0.3323068455357606    0.9144996117049168    0.2041862567685122
     0.8318119192025346    0.4175871542489185    0.2039777158714457
     0.8341636615578606    0.9171632406283987    0.2092380715815922
     0.4154470775515734    0.3326104393838413    0.7150641708633209
     0.4113164161771166    0.8298380415626985    0.7194051588247456
     0.9132102115475457    0.3307587765850767    0.7179158584672474
     0.9147657594390671    0.8326632230814601    0.7078587589383236
     0.1722241221193255    0.0865386259684151    0.1018874275551236
     0.1709536728362228    0.5856395394951454    0.1102151856729753
     0.6727439054202304    0.0860572516614220    0.1019806475867251
     0.6715944567469454    0.5878194431833513    0.1057350371903865
     0.4189981150699623    0.3295041211985770    0.0920473708520150
     0.4168928072369584    0.8335276377653651    0.0945162776348381
     0.9205589293548178    0.3304181058652106    0.0935562893990249
     0.9201016987212710    0.8294506259802381    0.0973167847709789
     0.3417983164417162    0.1743258811622288    0.6075159109745304
     0.3293259573631086    0.6647763888288035    0.6195624703006025
     0.8370514355962710    0.1715900600327493    0.6110285914395783
     0.8308132210967555    0.6652564290494344    0.6158890975442718
     0.2657432429996181    0.0265523078730021    0.8387411498633756
     0.2555554805847059    0.5206047762006814    0.8530621090282973
     0.7654271058129343    0.0234132146249382    0.8429514096060686
     0.7588662565995790    0.5233495008761986    0.8505164314730512
     0.2612340871453142    0.2390656721782185    0.8352102395992150
     0.2478687223537545    0.7302597295492510    0.8557076164419547
     0.7613589197660924    0.2380854159971113    0.8412875874528920
     0.7533445198635335    0.7348165812063755    0.8511227447902007
     0.3322198645145145    0.4123099149160933    0.5955099467181059
     0.3312981741922134    0.9100656421142307    0.5927156191696766
     0.8316102289882701    0.4111380802014681    0.5981901351295017
     0.8232927290759844    0.9098882296374634    0.5909880093080434
     0.2398683367579527    0.2605743083068279    0.3408022947549799
     0.2299760565540471    0.7498657505329469    0.3497350986906581
     0.7353155822264054    0.2569509966359910    0.3412058895823862
     0.7299453973090941    0.7510350253476458    0.3478467270211776
     0.0185654639147496    0.2565420922357818    0.3363197230651803
     0.0191764075082255    0.7598198631538946    0.3377066366157377
     0.5192256858535924    0.2578088170521508    0.3321883343177561
     0.5176633128514798    0.7589779510719830    0.3380076848736743
     0.0902605010519034    0.1710851644355193    0.5937968419246151
     0.0808416544189789    0.6624566677291556    0.6041885352509743
     0.5829727341210194    0.1587419342470746    0.5964463796183547
     0.5819203283723670    0.6635922133482911    0.6034136299725108
     0.0016354532425261   -0.0000159717502974    0.8002237627580028
     0.9907264605865228    0.4937579113418259    0.8183517699826089
     0.4998503137923708    0.9981257628763053    0.8122963208203035
     0.4923265043990962    0.4944296343478274    0.8170114974553340
     0.0103845026569675    0.0044797299978787    0.3100195655635672
     0.9961689421771097    0.4966693611986281    0.3034380391853249
     0.4996620960643566    0.0006995449293724    0.2997511836033712
     0.4987697811571982    0.4977574608200188    0.3020228260807538
     0.1660671004380031    0.3355716638627608    0.1030653226312980
     0.1673019097723376    0.8330611456261027    0.1049490595774982
     0.6694161149076745    0.3370302125354421    0.1013741600598849
     0.6605890822430959    0.8312756503909473    0.1030257643508767
     0.4850395625015305    0.2539760222295037    0.8442357524786483
     0.4756510776201121    0.7444135185676354    0.8549697613769169
     0.9837320657569378    0.2496029777451123    0.8446000319637763
     0.9796592704626926    0.7456956964473572    0.8500309794048097
     0.0776143085723205    0.4172714419032284    0.6073163393242921
     0.0966230090101839    0.9167305635068053    0.5972723961119838
     0.5795856218171379    0.4192265165131643    0.6064233752024062
     0.5894943420444893    0.9197977862070044    0.5989017333143211
     0.2300054882679174    0.4744564091927507    0.3511158344406763
     0.2431798655914201    0.9776964774358698    0.3409021252599914
     0.7333249170153019    0.4778415661456957    0.3463854876199883
     0.7321910064701289    0.9780648920539171    0.3456906518698261
     0.4221092478646514    0.0960042367582569    0.0884294427112086
     0.4169176117719176    0.5907953960535760    0.0971786810064200
     0.9217756430235315    0.0945447716956714    0.0941844649824339
     0.9205453291836350    0.5921861312889275    0.0954607270796221

  0.00000000E+00  0.00000000E+00  0.00000000E+00
  0.00000000E+00  0.00000000E+00  0.00000000E+00
  0.00000000E+00  0.00000000E+00  0.00000000E+00
  0.00000000E+00  0.00000000E+00  0.00000000E+00
  0.00000000E+00  0.00000000E+00  0.00000000E+00
  0.00000000E+00  0.00000000E+00  0.00000000E+00
  0.00000000E+00  0.00000000E+00  0.00000000E+00
  0.00000000E+00  0.00000000E+00  0.00000000E+00
  0.00000000E+00  0.00000000E+00  0.00000000E+00
  0.00000000E+00  0.00000000E+00  0.00000000E+00
  0.00000000E+00  0.00000000E+00  0.00000000E+00
  0.00000000E+00  0.00000000E+00  0.00000000E+00
  0.00000000E+00  0.00000000E+00  0.00000000E+00
  0.00000000E+00  0.00000000E+00  0.00000000E+00
  0.00000000E+00  0.00000000E+00  0.00000000E+00
  0.00000000E+00  0.00000000E+00  0.00000000E+00
  0.00000000E+00  0.00000000E+00  0.00000000E+00
  0.00000000E+00  0.00000000E+00  0.00000000E+00
  0.00000000E+00  0.00000000E+00  0.00000000E+00
  0.00000000E+00  0.00000000E+00  0.00000000E+00
  0.00000000E+00  0.00000000E+00  0.00000000E+00
  0.00000000E+00  0.00000000E+00  0.00000000E+00
  0.00000000E+00  0.00000000E+00  0.00000000E+00
  0.00000000E+00  0.00000000E+00  0.00000000E+00
  0.00000000E+00  0.00000000E+00  0.00000000E+00
  0.00000000E+00  0.00000000E+00  0.00000000E+00
  0.00000000E+00  0.00000000E+00  0.00000000E+00
  0.00000000E+00  0.00000000E+00  0.00000000E+00
  0.00000000E+00  0.00000000E+00  0.00000000E+00
  0.00000000E+00  0.00000000E+00  0.00000000E+00
  0.00000000E+00  0.00000000E+00  0.00000000E+00
  0.00000000E+00  0.00000000E+00  0.00000000E+00
  0.00000000E+00  0.00000000E+00  0.00000000E+00
  0.00000000E+00  0.00000000E+00  0.00000000E+00
  0.00000000E+00  0.00000000E+00  0.00000000E+00
  0.00000000E+00  0.00000000E+00  0.00000000E+00
  0.00000000E+00  0.00000000E+00  0.00000000E+00
  0.00000000E+00  0.00000000E+00  0.00000000E+00
  0.00000000E+00  0.00000000E+00  0.00000000E+00
  0.00000000E+00  0.00000000E+00  0.00000000E+00
  0.00000000E+00  0.00000000E+00  0.00000000E+00
  0.00000000E+00  0.00000000E+00  0.00000000E+00
  0.00000000E+00  0.00000000E+00  0.00000000E+00
  0.00000000E+00  0.00000000E+00  0.00000000E+00
  0.00000000E+00  0.00000000E+00  0.00000000E+00
  0.00000000E+00  0.00000000E+00  0.00000000E+00
  0.00000000E+00  0.00000000E+00  0.00000000E+00
  0.00000000E+00  0.00000000E+00  0.00000000E+00
  0.00000000E+00  0.00000000E+00  0.00000000E+00
  0.00000000E+00  0.00000000E+00  0.00000000E+00
  0.00000000E+00  0.00000000E+00  0.00000000E+00
  0.00000000E+00  0.00000000E+00  0.00000000E+00
  0.00000000E+00  0.00000000E+00  0.00000000E+00
  0.00000000E+00  0.00000000E+00  0.00000000E+00
  0.00000000E+00  0.00000000E+00  0.00000000E+00
  0.00000000E+00  0.00000000E+00  0.00000000E+00
  0.00000000E+00  0.00000000E+00  0.00000000E+00
  0.00000000E+00  0.00000000E+00  0.00000000E+00
  0.00000000E+00  0.00000000E+00  0.00000000E+00
  0.00000000E+00  0.00000000E+00  0.00000000E+00
  0.00000000E+00  0.00000000E+00  0.00000000E+00
  0.00000000E+00  0.00000000E+00  0.00000000E+00
  0.00000000E+00  0.00000000E+00  0.00000000E+00
  0.00000000E+00  0.00000000E+00  0.00000000E+00
  0.00000000E+00  0.00000000E+00  0.00000000E+00
  0.00000000E+00  0.00000000E+00  0.00000000E+00
  0.00000000E+00  0.00000000E+00  0.00000000E+00
  0.00000000E+00  0.00000000E+00  0.00000000E+00
  0.00000000E+00  0.00000000E+00  0.00000000E+00
  0.00000000E+00  0.00000000E+00  0.00000000E+00
  0.00000000E+00  0.00000000E+00  0.00000000E+00
  0.00000000E+00  0.00000000E+00  0.00000000E+00
  0.00000000E+00  0.00000000E+00  0.00000000E+00
  0.00000000E+00  0.00000000E+00  0.00000000E+00
  0.00000000E+00  0.00000000E+00  0.00000000E+00
  0.00000000E+00  0.00000000E+00  0.00000000E+00
  0.00000000E+00  0.00000000E+00  0.00000000E+00
  0.00000000E+00  0.00000000E+00  0.00000000E+00
  0.00000000E+00  0.00000000E+00  0.00000000E+00
  0.00000000E+00  0.00000000E+00  0.00000000E+00
  0.00000000E+00  0.00000000E+00  0.00000000E+00
  0.00000000E+00  0.00000000E+00  0.00000000E+00
  0.00000000E+00  0.00000000E+00  0.00000000E+00
  0.00000000E+00  0.00000000E+00  0.00000000E+00
  0.00000000E+00  0.00000000E+00  0.00000000E+00
  0.00000000E+00  0.00000000E+00  0.00000000E+00
  0.00000000E+00  0.00000000E+00  0.00000000E+00
  0.00000000E+00  0.00000000E+00  0.00000000E+00
  0.00000000E+00  0.00000000E+00  0.00000000E+00
  0.00000000E+00  0.00000000E+00  0.00000000E+00
  0.00000000E+00  0.00000000E+00  0.00000000E+00
  0.00000000E+00  0.00000000E+00  0.00000000E+00
  0.00000000E+00  0.00000000E+00  0.00000000E+00
  0.00000000E+00  0.00000000E+00  0.00000000E+00
  0.00000000E+00  0.00000000E+00  0.00000000E+00
  0.00000000E+00  0.00000000E+00  0.00000000E+00
  0.00000000E+00  0.00000000E+00  0.00000000E+00
  0.00000000E+00  0.00000000E+00  0.00000000E+00
  0.00000000E+00  0.00000000E+00  0.00000000E+00
  0.00000000E+00  0.00000000E+00  0.00000000E+00
  0.00000000E+00  0.00000000E+00  0.00000000E+00
  0.00000000E+00  0.00000000E+00  0.00000000E+00
  0.00000000E+00  0.00000000E+00  0.00000000E+00
  0.00000000E+00  0.00000000E+00  0.00000000E+00
  0.00000000E+00  0.00000000E+00  0.00000000E+00
  0.00000000E+00  0.00000000E+00  0.00000000E+00
  0.00000000E+00  0.00000000E+00  0.00000000E+00
