System                                  
   1.0000000000000000     
     5.5222491222601597    0.1264147721467127    8.6460257872226460
     2.5724747075810934    4.9650861182741597    8.6759856708922953
     0.1111396859557017    0.1357671067064659   10.3006433745697024
  Co              O             
     8    16
Direct
     0.9989567556253098    1.0007870703203030    0.9998400900856890
     0.9995363589684634    1.0000679063522029    0.5000693621286758
    -0.0002922539685012    0.5000520633552898    0.0001101330179717
     0.9989054257968067    0.5006963779214758    0.4999479045511248
     0.4995638636527213    0.0002028966662412    0.0000923442919245
     0.4988238336131485    1.0007752836979522    0.4999671828397441
     0.4989957262117742    0.5008280668316749   -0.0000050394588252
     0.4995846669257222    0.5000365756924017    0.5002718157069521
     0.1319583818076193    0.1364709363177560    0.1352134747532374
     0.1311240779854677    0.1371143974894185    0.6350833606552805
     0.1314525917230179    0.6370008455883197    0.1350354597711181
     0.1321256851388198    0.6360878733518081    0.6354441329117214
     0.6312617782575309    0.1370751733795675    0.1351827364335412
     0.6318589496347649    0.1364753891341913    0.6353203239850429
     0.6319316092844496    0.6365234278997497    0.1353049295856734
     0.6310993129914270    0.6369870073686940    0.6354107082017981
     0.3665685238472647    0.3644578484891776    0.3647938804517980
     0.3673790829439268    0.3636690179141674    0.8650431214743163
     0.3670386196140803    0.8638979678202217    0.3650715290129472
     0.3664734239455975    0.8647959816867340    0.8645760767132211
     0.8672755376498777    0.3637474740619588    0.3649808506805595
     0.8666809277841185    0.3644590344804075    0.8646969034718224
     0.8665547091853579    0.8643584809573399    0.3647371717926408
     0.8673784092224073    0.8638875320511803    0.8647253507756852

  0.00000000E+00  0.00000000E+00  0.00000000E+00
  0.00000000E+00  0.00000000E+00  0.00000000E+00
  0.00000000E+00  0.00000000E+00  0.00000000E+00
  0.00000000E+00  0.00000000E+00  0.00000000E+00
  0.00000000E+00  0.00000000E+00  0.00000000E+00
  0.00000000E+00  0.00000000E+00  0.00000000E+00
  0.00000000E+00  0.00000000E+00  0.00000000E+00
  0.00000000E+00  0.00000000E+00  0.00000000E+00
  0.00000000E+00  0.00000000E+00  0.00000000E+00
  0.00000000E+00  0.00000000E+00  0.00000000E+00
  0.00000000E+00  0.00000000E+00  0.00000000E+00
  0.00000000E+00  0.00000000E+00  0.00000000E+00
  0.00000000E+00  0.00000000E+00  0.00000000E+00
  0.00000000E+00  0.00000000E+00  0.00000000E+00
  0.00000000E+00  0.00000000E+00  0.00000000E+00
  0.00000000E+00  0.00000000E+00  0.00000000E+00
  0.00000000E+00  0.00000000E+00  0.00000000E+00
  0.00000000E+00  0.00000000E+00  0.00000000E+00
  0.00000000E+00  0.00000000E+00  0.00000000E+00
  0.00000000E+00  0.00000000E+00  0.00000000E+00
  0.00000000E+00  0.00000000E+00  0.00000000E+00
  0.00000000E+00  0.00000000E+00  0.00000000E+00
  0.00000000E+00  0.00000000E+00  0.00000000E+00
  0.00000000E+00  0.00000000E+00  0.00000000E+00
