System
1.0
5.532228180514802 0.1624383188399987 8.750627113935955
2.6133837260883004 4.97925561833876 8.77842997418446
0.1505349368540064 0.1542671589342157 10.401423106706725
Co O 
8 16 
direct
0.9975984764512692 0.9999161215105726 0.9987981994005505 Co
0.998620222536906 0.9988178360961394 0.4990501908692137 Co
1.0008547834311288 0.5006792451690334 0.0010006376962604 Co
-0.002007437558449 0.4991383211052767 0.4990365404013325 Co
0.5006175435401408 0.0010347798670014 0.0008708668098635 Co
0.4975808571033793 -3.01908907175e-05 0.4988567429423275 Co
0.5001906626164522 0.5022049465215541 1.0010576266805602 Co
0.5003980447769681 0.5012807373235162 0.5011884975408947 Co
0.1350960085823972 0.1388401381766109 0.1283068742713114 O
0.1296497575317435 0.1375067346432355 0.633955456463187 O
0.1359610764627304 0.635941573515164 0.1331740953968485 O
0.1343144105075328 0.6291357091191916 0.6380689796398742 O
0.6311490705400363 0.1385423459036503 0.135036160467771 O
0.625351793105759 0.1408227507087753 0.6354781010571399 O
0.6323265185609582 0.6389801365293917 0.1360475070765946 O
0.6288827520568623 0.6358842768196094 0.6402956084314065 O
0.3644533524179459 0.3610746777461504 0.3724923334120379 O
0.3681041751838566 0.3623154415271046 0.8658005621075006 O
0.361271492432681 0.864623744849607 0.369158589502565 O
0.3620928003882543 0.8759629192000212 0.8602138361416465 O
0.8695977633920594 0.3591684434948401 0.3664123829857706 O
0.8750276612242945 0.3609674894276758 0.8619257136279501 O
0.8664692830265464 0.8622984071093739 0.3644004739634643 O
0.8686349295297316 0.8653480433554597 0.860287826947586 O
