Mn Co Ni O                              
   1.0000000000000000     
    11.3169022765316249   -0.0506069608459536   -0.1049661527081087
    -5.6102811085317557    9.8387861534609407    0.0067311572578763
     0.1259371260043037    0.0833514313018678    8.5850493002334272
  Mn              Co              Ni              O             
    12     8    12    64
Direct
     0.0821363448941612    0.4157151556078219    0.2113563624212922
     0.0819224317997950    0.9155597586195248    0.2112641050358537
     0.5819014082303989    0.4156594629235527    0.2113218518947326
     0.5821047074348695    0.9159105812552260    0.2119266870824978
     0.0830404201660891    0.1677671257571347    0.2106699402327532
     0.0830443537790023    0.6678687744620704    0.2110106153107520
     0.5830105223095479    0.1679612668780779    0.2108169654309641
     0.5828684377998470    0.6678516711719201    0.2113722205063707
     0.1663999360375100    0.0824972076187835    0.7104170911923656
     0.1668665700630350    0.5830576797698371    0.7108937122376828
     0.6669084774932427    0.0831305344119272    0.7107451246129455
     0.6664210521514250    0.5824170888267725    0.7107458299121332
     0.1672489616500650    0.3332571338861891    0.4900010669042602
     0.1669764161950181    0.8331736166026937    0.4901530443909802
     0.6670126106311111    0.3331537166649286    0.4900108926230110
     0.6671157574996049    0.8332618756693907    0.4904927543837601
     0.3341403895542365    0.1662779401474480    0.9869967730530669
     0.3343292525428646    0.6667134432768638    0.9876338884461725
     0.8343442566529169    0.1665253874525620    0.9873116133304942
     0.8340586875167553    0.6661851613352990    0.9873509122502259
     0.4149985054701602    0.0837779809660216    0.7100667267838605
     0.4150368514289470    0.5838185010845632    0.7107414948073444
     0.9150297380278063    0.0836040480209330    0.7104230283480160
     0.9149391098150790    0.5834783214255537    0.7103632904884138
     0.3299703201452319    0.4149762015212684    0.2112966345792905
     0.3300231611804780    0.9152003204838300    0.2116194902938929
     0.8300597442921740    0.4150576506845997    0.2114189073245035
     0.8299399562852992    0.9149827575691730    0.2116632259695714
     0.4147625763491766    0.3309606589621221    0.7104357201286592
     0.4152672578146729    0.8314996403566898    0.7110639936021897
     0.9153967921061590    0.3312711659903775    0.7106630623355129
     0.9148118716430932    0.8308066164565129    0.7107488214664125
     0.1668173571006172    0.0836505302090992    0.0969625963399552
     0.1671607092683918    0.5840468165414029    0.0975551164359513
     0.6671305557578129    0.0839947853047219    0.0976008430969917
     0.6669608050055297    0.5839778276048694    0.0976401156884817
     0.4174710209854730    0.3363679352527399    0.0942004254880755
     0.4175977221375632    0.8365751036671965    0.0949252714096553
     0.9175901769195628    0.3364128272249325    0.0944729306026123
     0.9173031709264600    0.8361451275641448    0.0945328461925207
     0.3352632309312260    0.1678749846579903    0.6004650273298275
     0.3357825278338306    0.6683953901252043    0.6012658302157096
     0.8357182766333294    0.1681175657790205    0.6008443636976378
     0.8352814011608023    0.6676862856461375    0.6008628587741413
     0.2616185918222698    0.0194868598859235    0.8424547683119761
     0.2616355336876900    0.5199407597813914    0.8432416883694805
     0.7615633925890753    0.0197858793478407    0.8428887428509292
     0.7614320205839055    0.5192504258107764    0.8427686511293817
     0.2617969326477919    0.2404745124222461    0.8427940893291729
     0.2621535164288700    0.7410888841214045    0.8433432687351531
     0.7623387618605367    0.2410624315061803    0.8430359386526395
     0.7618373700047587    0.7404416016743635    0.8431427392502172
     0.3364815997517338    0.4181273975337269    0.5938701296952116
     0.3377101916045921    0.9186925139718074    0.5929977410351194
     0.8377997934615443    0.4186141071256292    0.5928213189827035
     0.8369883550926918    0.9181614233251156    0.5936020568845659
     0.2414232646888602    0.2613538290214864    0.3427463440931068
     0.2414725592809954    0.7616373828733976    0.3431103308220418
     0.7414139963374599    0.2614988169007039    0.3429090245896188
     0.7412680536781833    0.7614010733318598    0.3434429784936376
     0.0203301405895319    0.2602566093175022    0.3464840240636751
     0.0200046003417112    0.7601232878568477    0.3465748500082394
     0.5199890714686798    0.2601934178307183    0.3464633435037339
     0.5200971803301632    0.7603474200508592    0.3470914278345439
     0.0843090995938410    0.1675138972396437    0.5975623234989623
     0.0849596105827265    0.6685197323322375    0.5984051403548811
     0.5851211606198283    0.1688936062011390    0.5983843549096346
     0.5845933047800843    0.6680740595425393    0.5983905040680064
     0.9954187702333325    0.9971985320735292    0.8180623239111312
     0.9957016594913567    0.4975228047463442    0.8181127339436057
     0.4957364166824220   -0.0020355551010198    0.8181376312536897
     0.4953406795314884    0.4971599758257704    0.8181352524024887
     0.9952439536121503    0.9979800358976451    0.3197010398533621
     0.9952406130017225    0.4979869464567863    0.3197902443121627
     0.4951925098264434    0.9983405159039755    0.3200315012299469
     0.4949776058136729    0.4978275548632233    0.3199022356332873
     0.1687306286549088    0.3348047484834662    0.0983955985467480
     0.1688492245466281    0.8348260705547743    0.0986396262503748
     0.6688011620343931    0.3349599898187512    0.0984988720839537
     0.6685404845835333    0.8348314911450381    0.0990554518049796
     0.4797056176639881    0.2400316452114800    0.8399811837953169
     0.4799712124213685    0.7401607554284357    0.8408158132913431
     0.9800237038414344    0.2399131031502110    0.8403571860764453
     0.9796103556426333    0.7397434841753618    0.8404678534722825
     0.0839017568134682    0.4171097094805311    0.5973671534006517
     0.0833854762961396    0.9165403707770227    0.5973416016602451
     0.5832735806237267    0.4168791722145562    0.5969275471948731
     0.5837719344313592    0.9171281148770869    0.5976952648832841
     0.2405671183757702    0.4785768353334657    0.3435619844516193
     0.2402983667643735    0.9785185867826030    0.3436763118041463
     0.7403627582431632    0.4783953945667070    0.3436209614957914
     0.7405235834068252    0.9786331323914834    0.3441119666600320
     0.4149255030807871    0.0852371982296649    0.0991205422910531
     0.4150358170642511    0.5852933990933307    0.0993949220084625
     0.9149597818075521    0.0850622768668013    0.0990770886667193
     0.9150647320807541    0.5850777443000268    0.0991340739843942

  0.00000000E+00  0.00000000E+00  0.00000000E+00
  0.00000000E+00  0.00000000E+00  0.00000000E+00
  0.00000000E+00  0.00000000E+00  0.00000000E+00
  0.00000000E+00  0.00000000E+00  0.00000000E+00
  0.00000000E+00  0.00000000E+00  0.00000000E+00
  0.00000000E+00  0.00000000E+00  0.00000000E+00
  0.00000000E+00  0.00000000E+00  0.00000000E+00
  0.00000000E+00  0.00000000E+00  0.00000000E+00
  0.00000000E+00  0.00000000E+00  0.00000000E+00
  0.00000000E+00  0.00000000E+00  0.00000000E+00
  0.00000000E+00  0.00000000E+00  0.00000000E+00
  0.00000000E+00  0.00000000E+00  0.00000000E+00
  0.00000000E+00  0.00000000E+00  0.00000000E+00
  0.00000000E+00  0.00000000E+00  0.00000000E+00
  0.00000000E+00  0.00000000E+00  0.00000000E+00
  0.00000000E+00  0.00000000E+00  0.00000000E+00
  0.00000000E+00  0.00000000E+00  0.00000000E+00
  0.00000000E+00  0.00000000E+00  0.00000000E+00
  0.00000000E+00  0.00000000E+00  0.00000000E+00
  0.00000000E+00  0.00000000E+00  0.00000000E+00
  0.00000000E+00  0.00000000E+00  0.00000000E+00
  0.00000000E+00  0.00000000E+00  0.00000000E+00
  0.00000000E+00  0.00000000E+00  0.00000000E+00
  0.00000000E+00  0.00000000E+00  0.00000000E+00
  0.00000000E+00  0.00000000E+00  0.00000000E+00
  0.00000000E+00  0.00000000E+00  0.00000000E+00
  0.00000000E+00  0.00000000E+00  0.00000000E+00
  0.00000000E+00  0.00000000E+00  0.00000000E+00
  0.00000000E+00  0.00000000E+00  0.00000000E+00
  0.00000000E+00  0.00000000E+00  0.00000000E+00
  0.00000000E+00  0.00000000E+00  0.00000000E+00
  0.00000000E+00  0.00000000E+00  0.00000000E+00
  0.00000000E+00  0.00000000E+00  0.00000000E+00
  0.00000000E+00  0.00000000E+00  0.00000000E+00
  0.00000000E+00  0.00000000E+00  0.00000000E+00
  0.00000000E+00  0.00000000E+00  0.00000000E+00
  0.00000000E+00  0.00000000E+00  0.00000000E+00
  0.00000000E+00  0.00000000E+00  0.00000000E+00
  0.00000000E+00  0.00000000E+00  0.00000000E+00
  0.00000000E+00  0.00000000E+00  0.00000000E+00
  0.00000000E+00  0.00000000E+00  0.00000000E+00
  0.00000000E+00  0.00000000E+00  0.00000000E+00
  0.00000000E+00  0.00000000E+00  0.00000000E+00
  0.00000000E+00  0.00000000E+00  0.00000000E+00
  0.00000000E+00  0.00000000E+00  0.00000000E+00
  0.00000000E+00  0.00000000E+00  0.00000000E+00
  0.00000000E+00  0.00000000E+00  0.00000000E+00
  0.00000000E+00  0.00000000E+00  0.00000000E+00
  0.00000000E+00  0.00000000E+00  0.00000000E+00
  0.00000000E+00  0.00000000E+00  0.00000000E+00
  0.00000000E+00  0.00000000E+00  0.00000000E+00
  0.00000000E+00  0.00000000E+00  0.00000000E+00
  0.00000000E+00  0.00000000E+00  0.00000000E+00
  0.00000000E+00  0.00000000E+00  0.00000000E+00
  0.00000000E+00  0.00000000E+00  0.00000000E+00
  0.00000000E+00  0.00000000E+00  0.00000000E+00
  0.00000000E+00  0.00000000E+00  0.00000000E+00
  0.00000000E+00  0.00000000E+00  0.00000000E+00
  0.00000000E+00  0.00000000E+00  0.00000000E+00
  0.00000000E+00  0.00000000E+00  0.00000000E+00
  0.00000000E+00  0.00000000E+00  0.00000000E+00
  0.00000000E+00  0.00000000E+00  0.00000000E+00
  0.00000000E+00  0.00000000E+00  0.00000000E+00
  0.00000000E+00  0.00000000E+00  0.00000000E+00
  0.00000000E+00  0.00000000E+00  0.00000000E+00
  0.00000000E+00  0.00000000E+00  0.00000000E+00
  0.00000000E+00  0.00000000E+00  0.00000000E+00
  0.00000000E+00  0.00000000E+00  0.00000000E+00
  0.00000000E+00  0.00000000E+00  0.00000000E+00
  0.00000000E+00  0.00000000E+00  0.00000000E+00
  0.00000000E+00  0.00000000E+00  0.00000000E+00
  0.00000000E+00  0.00000000E+00  0.00000000E+00
  0.00000000E+00  0.00000000E+00  0.00000000E+00
  0.00000000E+00  0.00000000E+00  0.00000000E+00
  0.00000000E+00  0.00000000E+00  0.00000000E+00
  0.00000000E+00  0.00000000E+00  0.00000000E+00
  0.00000000E+00  0.00000000E+00  0.00000000E+00
  0.00000000E+00  0.00000000E+00  0.00000000E+00
  0.00000000E+00  0.00000000E+00  0.00000000E+00
  0.00000000E+00  0.00000000E+00  0.00000000E+00
  0.00000000E+00  0.00000000E+00  0.00000000E+00
  0.00000000E+00  0.00000000E+00  0.00000000E+00
  0.00000000E+00  0.00000000E+00  0.00000000E+00
  0.00000000E+00  0.00000000E+00  0.00000000E+00
  0.00000000E+00  0.00000000E+00  0.00000000E+00
  0.00000000E+00  0.00000000E+00  0.00000000E+00
  0.00000000E+00  0.00000000E+00  0.00000000E+00
  0.00000000E+00  0.00000000E+00  0.00000000E+00
  0.00000000E+00  0.00000000E+00  0.00000000E+00
  0.00000000E+00  0.00000000E+00  0.00000000E+00
  0.00000000E+00  0.00000000E+00  0.00000000E+00
  0.00000000E+00  0.00000000E+00  0.00000000E+00
  0.00000000E+00  0.00000000E+00  0.00000000E+00
  0.00000000E+00  0.00000000E+00  0.00000000E+00
  0.00000000E+00  0.00000000E+00  0.00000000E+00
  0.00000000E+00  0.00000000E+00  0.00000000E+00
