Mn Co Ni O 
 1.0000000000000000
    11.4009387479999997   -0.1270461850000000   -0.2333408100000000
    -5.7172201769999997    9.9979219819999994    0.0770862630000000
     0.0362140600000000    0.0921245990000000    9.2636120850000001
 Mn  Co  Ni  O  
  12   8  12  64
Direct
  0.0821887127667145  0.4156459946064684  0.2123812359911346
  0.0824640650019088  0.9155205437053252  0.2119279344056716
  0.5821094583560878  0.4159461373125309  0.2134908220508419
  0.5820375049228822  0.9166167964883067  0.2152782868179405
  0.0829533692428527  0.1680278872867504  0.2100329489844604
  0.0841541060590968  0.6684652498863082  0.2139281179986456
  0.5835050741324310  0.1689362748348543  0.2137365924174503
  0.5826873086290806  0.6686989282367077  0.2150184192565266
  0.1659722872855411  0.0806154215359514  0.7070798848510274
  0.1693045581826060  0.5827568148435965  0.7090650015758887
  0.6683135230024229  0.0840487513351078  0.7075615596268893
  0.6667516187898352  0.5821212570675620  0.7063839407818889
  0.1662034435500171  0.3278599366547558  0.4794316199865593
  0.1684313628696211  0.8335760643770346  0.4841280707526872
  0.6664911304980884  0.3319402583440341  0.4843695423579736
  0.6671879912844723  0.8333223531957389  0.4856663296071477
  0.3349362758892948  0.1663831000180648  0.9877614009036567
  0.3354050072375758  0.6685222720760013  0.9882095351556665
  0.8348910929978131  0.1671766677184235  0.9886658740985794
  0.8343888633875124  0.6662996006880393  0.9887098404965635
  0.4147369394680689  0.0837883374655828  0.7056908324302092
  0.4185072225923498  0.5865215588783514  0.7101573337488994
  0.9150862915435425  0.0831138912239596  0.7096044153073821
  0.9159394478138866  0.5840785228903809  0.7079011471836330
  0.3308489731438783  0.4156185754659680  0.2113551459840739
  0.3308261502028755  0.9161636448086357  0.2145741414843327
  0.8312842280266804  0.4164102188647086  0.2131310129725362
  0.8307609660216676  0.9160861650563413  0.2129399158317286
  0.4132702795290968  0.3296503088654380  0.7050922740972064
  0.4168566135558677  0.8326771404485575  0.7105480702798964
  0.9162849157195730  0.3315883757914795  0.7089940398428053
  0.9146014951111385  0.8301015608454710  0.7087790773419891
  0.1681751601020916  0.0847116238666220  0.1038355251426272
  0.1693393536168738  0.5857330216398878  0.1089922379002468
  0.6690807612107670  0.0862066895192691  0.1080753906844638
  0.6687240276427966  0.5859722575683400  0.1082655648268130
  0.4188323157283367  0.3347768941004697  0.0966927332321768
  0.4174969481033713  0.8370975286192260  0.1014453484420896
  0.9186133309152008  0.3355093794684402  0.0962795944243039
  0.9180177477823457  0.8340813194937374  0.0972671118605056
  0.3324728173284591  0.1663219599326721  0.6057602894705365
  0.3379735170281756  0.6705933386030275  0.6117623911446745
  0.8357180047919883  0.1684871604368227  0.6085594926558490
  0.8347053136230681  0.6680360854227960  0.6073672296498930
  0.2616817681750566  0.0221026365622076  0.8371839359131771
  0.2626846188648095  0.5254432994228428  0.8414903937948692
  0.7617669234797860  0.0233459578249750  0.8390648903462907
  0.7615799326941499  0.5221578170798999  0.8368308617015748
  0.2614569887998091  0.2359074137055753  0.8364019664808914
  0.2630342493297730  0.7382307383278025  0.8389091754533384
  0.7627468747590419  0.2379887906334001  0.8373520216412889
  0.7613071753850416  0.7363067688389555  0.8367313769844410
  0.3194176514771591  0.4064402754022124  0.5938981642451332
  0.3286759740248574  0.9147253936682838  0.5909812182876403
  0.8339481525104014  0.4166373629942858  0.5899844542190128
  0.8333859746617139  0.9162319332085874  0.5914068953155963
  0.2373329655371785  0.2588383261081492  0.3423283011032187
  0.2398436195864569  0.7625017212412443  0.3453854573020024
  0.7387315540805859  0.2625280322930594  0.3459254214075295
  0.7378910158380085  0.7625402560664065  0.3476623026794349
  0.0208724953061885  0.2586688127601103  0.3396613074856690
  0.0229846520041779  0.7606907242683816  0.3424014761174675
  0.5212950044121694  0.2598904128447335  0.3420852890627881
  0.5211470920447208  0.7603474362261851  0.3437236482842807
  0.0858829036127091  0.1682380264039330  0.5977820632743137
  0.0884444828644870  0.6719463612660516  0.5985289347686652
  0.5884752286052052  0.1729168776182406  0.5973874682817589
  0.5877179283330739  0.6722126606250288  0.5998135678087271
  0.9972054752709189  0.9961935682249963  0.8065769405473816
  0.9982854330166280  0.4979364552852862  0.8055234397265775
  0.4984491643365877  0.0002945012404219  0.8042549451972275
  0.4971997748251211  0.4956615628616323  0.8030612931905566
  0.9992706455285516  0.9990455845286997  0.3103808649127914
  0.9989187885315249  0.4983605169027633  0.3127205395459284
  0.4985123888769516  0.9997933491097446  0.3142287182203894
  0.4974964977233873  0.4979131831720869  0.3129226421144736
  0.1658198320434602  0.3349577251195601  0.1083920489564236
  0.1667914129211931  0.8345228566350360  0.1102398271447045
  0.6659703706005862  0.3352723744988948  0.1104151557609922
  0.6648514021553193  0.8347858134874123  0.1119505476293266
  0.4754854533874560  0.2386967986423952  0.8383932579835829
  0.4788501925812330  0.7504495549359763  0.8530836424856119
  0.9765702917372526  0.2385785801571165  0.8424405620736600
  0.9757711973578447  0.7383327348071641  0.8411969174321590
  0.0866364352589241  0.4164015604762875  0.6006703351476040
  0.0841103106137641  0.9164011527440273  0.5989569054514267
  0.5845364500254312  0.4165626302467137  0.5960671605834290
  0.5876212107740225  0.9169251696064252  0.6005857783626732
  0.2363735141538230  0.4726434725698777  0.3464632627936131
  0.2372728999407477  0.9753909813558997  0.3452029484400192
  0.7362293351285284  0.4741583245227306  0.3474337252645067
  0.7365428121277133  0.9750480378730075  0.3483406534392298
  0.4169221262565015  0.0866379944725085  0.1014762210242004
  0.4176339861722607  0.5879588004359567  0.1016296340190926
  0.9160063404061671  0.0869303466626804  0.0993468333329925
  0.9174883991911478  0.5867700525358710  0.1011911516848195
