System                                  
   1.0000000000000000     
     5.2152295756844422    3.0324227452915360    0.1105574786105594
    -5.2262065050531623    3.0581917928522442    0.0611784030925127
     0.0336378077523909    0.2084156355067484    5.9461904924992579
  Sr              Si              N             
     3     2     6
Direct
     0.2981626811349123    0.7022772362907878    0.5031019520054218
     0.7021801662451881    0.2980899869768415    0.4971889288187931
     0.4994343832414374    0.4994627923696759    0.0003493284027392
     0.9154628887081767    0.9133875267530214    0.3181845925091847
     0.0845950702544098    0.0867386110275762    0.6815487041635199
     0.9505308471638504    0.6663212157260205    0.2273533259680784
     0.3330294298452295    0.0558604531602190    0.7718391355846906
     0.0496342027154048    0.3336681865990047    0.7725657556405956
     0.6669714483993031    0.9442266672148288    0.2281419314009723
     0.1967870430975907    0.1981367537018349    0.3890692043214933
     0.8032118391945094    0.8018305701802032    0.6106571411844366

  0.00000000E+00  0.00000000E+00  0.00000000E+00
  0.00000000E+00  0.00000000E+00  0.00000000E+00
  0.00000000E+00  0.00000000E+00  0.00000000E+00
  0.00000000E+00  0.00000000E+00  0.00000000E+00
  0.00000000E+00  0.00000000E+00  0.00000000E+00
  0.00000000E+00  0.00000000E+00  0.00000000E+00
  0.00000000E+00  0.00000000E+00  0.00000000E+00
  0.00000000E+00  0.00000000E+00  0.00000000E+00
  0.00000000E+00  0.00000000E+00  0.00000000E+00
  0.00000000E+00  0.00000000E+00  0.00000000E+00
  0.00000000E+00  0.00000000E+00  0.00000000E+00
