System                                  
   1.0000000000000000     
     8.8857033835148052   -0.0026292410296812    0.3292402203940281
     7.5753961047613405    4.6844805124548072    0.3217339339649605
    -0.1374702914238382   -0.0568931621467949   11.0435591392126522
  Li              V               F             
     3     8    28
Direct
     0.5000218881896847   -0.0000204422750483   -0.0000028036319324
     0.0046686964159868    0.4977584741079467    0.2488068878391505
     0.9953383526324094    0.5022424303679733    0.7511961002050450
     0.1473759595468577    0.6400207183516429    0.3997290070024769
     0.1497671662400652    0.6383513310178659    0.8997306508193580
     0.6372489266319613    0.1510711418397326    0.1502163131877758
     0.6341900976481987    0.1486580521124193    0.6480816621502199
     0.3658094684700676    0.8513354114831659    0.3519323128448154
     0.3627516293768440    0.8489307634254191    0.8497802323525045
     0.8502363048826485    0.3616424031267292    0.1002741546620883
     0.8526203376643660    0.3600188630974280    0.6002737593852335
     0.6422831852843373    0.5041977503094701    0.4467003063695515
     0.6428669425873752    0.5011372662991883    0.9482627176333605
     0.4980647130158381    0.6478629837675438    0.2003346117606362
     0.5034249890707804    0.6397670464761543    0.6976991259200770
     0.2100956420199541    0.0713885860106968    0.0042728097510125
     0.2046448133275181    0.0625124476022777    0.5039762507960619
     0.0729740390906605    0.2074584048978617    0.2551140400758508
     0.0728454436545160    0.2059698028778529    0.7559903957030579
     0.6223845218282086    0.7860392678330007    0.3333231285176390
     0.6219623362526114    0.7945028283599858    0.8463689130404993
     0.7980966008507812    0.6178257616323402    0.0945739992090165
     0.8146403309280902    0.5984622907487379    0.5985807002306979
     0.9271530979377164    0.7940224676601922    0.2440172146917962
     0.9270339070210760    0.7925290769086990    0.7449037908834170
     0.3780152211918363    0.2055112514073383    0.1536291210500245
     0.3776682227038995    0.2139283939781242    0.6666766044254522
     0.1162890974369358    0.8886561940265612    0.3748709279450432
     0.1026999857692922    0.8964202897517207    0.8742326411959929
     0.7953448729991893    0.9375252927168134    0.4960290022345649
     0.7898892169266637    0.9286113217441916    0.9957425774760296
     0.4965767553751762    0.3602225577315984    0.3022900442709731
     0.5019870995402989    0.3520818197464444    0.7996596035282439
     0.3570861123109759    0.4989023399239532    0.0517366164986803
     0.3577051462712115    0.4958164170527312    0.5532985731852978
     0.1853377592215398    0.4015406136693934    0.4014343767483848
     0.2019139699943339    0.3821674227362417    0.9054228317293654
     0.8972747194689085    0.1035877537754812    0.1257185262924947
     0.8837125057401063    0.1113434419680309    0.6251221983377082

  0.00000000E+00  0.00000000E+00  0.00000000E+00
  0.00000000E+00  0.00000000E+00  0.00000000E+00
  0.00000000E+00  0.00000000E+00  0.00000000E+00
  0.00000000E+00  0.00000000E+00  0.00000000E+00
  0.00000000E+00  0.00000000E+00  0.00000000E+00
  0.00000000E+00  0.00000000E+00  0.00000000E+00
  0.00000000E+00  0.00000000E+00  0.00000000E+00
  0.00000000E+00  0.00000000E+00  0.00000000E+00
  0.00000000E+00  0.00000000E+00  0.00000000E+00
  0.00000000E+00  0.00000000E+00  0.00000000E+00
  0.00000000E+00  0.00000000E+00  0.00000000E+00
  0.00000000E+00  0.00000000E+00  0.00000000E+00
  0.00000000E+00  0.00000000E+00  0.00000000E+00
  0.00000000E+00  0.00000000E+00  0.00000000E+00
  0.00000000E+00  0.00000000E+00  0.00000000E+00
  0.00000000E+00  0.00000000E+00  0.00000000E+00
  0.00000000E+00  0.00000000E+00  0.00000000E+00
  0.00000000E+00  0.00000000E+00  0.00000000E+00
  0.00000000E+00  0.00000000E+00  0.00000000E+00
  0.00000000E+00  0.00000000E+00  0.00000000E+00
  0.00000000E+00  0.00000000E+00  0.00000000E+00
  0.00000000E+00  0.00000000E+00  0.00000000E+00
  0.00000000E+00  0.00000000E+00  0.00000000E+00
  0.00000000E+00  0.00000000E+00  0.00000000E+00
  0.00000000E+00  0.00000000E+00  0.00000000E+00
  0.00000000E+00  0.00000000E+00  0.00000000E+00
  0.00000000E+00  0.00000000E+00  0.00000000E+00
  0.00000000E+00  0.00000000E+00  0.00000000E+00
  0.00000000E+00  0.00000000E+00  0.00000000E+00
  0.00000000E+00  0.00000000E+00  0.00000000E+00
  0.00000000E+00  0.00000000E+00  0.00000000E+00
  0.00000000E+00  0.00000000E+00  0.00000000E+00
  0.00000000E+00  0.00000000E+00  0.00000000E+00
  0.00000000E+00  0.00000000E+00  0.00000000E+00
  0.00000000E+00  0.00000000E+00  0.00000000E+00
  0.00000000E+00  0.00000000E+00  0.00000000E+00
  0.00000000E+00  0.00000000E+00  0.00000000E+00
  0.00000000E+00  0.00000000E+00  0.00000000E+00
  0.00000000E+00  0.00000000E+00  0.00000000E+00
