System
1.0
8.931045763741354 -0.0001003182926825 0.3332336463685742
7.615016599606883 4.666375740263711 0.3332356764338762
-0.133303431948389 -0.0375947620015553 11.045580069121607
Li V F 
3 8 28 
direct
0.4999991406780941 1.0080675834e-06 9.965919709e-07 Li
1.1003564079e-06 0.4999988502222121 0.2499995853734253 Li
-9.22958926e-07 0.5000007661934525 0.7499996175350673 Li
0.1496319882794348 0.6391288547365848 0.4007117196030572 V
0.1496311259747144 0.6391289243320736 0.900711503070265 V
0.6391288593356035 0.1496313502701699 0.1507115761922752 V
0.6391283578025049 0.1496321805944047 0.6507119403210471 V
0.3608710305914514 0.8503685172875395 0.349288142197311 V
0.3608710814417866 0.8503685389487706 0.8492884079223755 V
0.8503680231007793 0.3608718000516575 0.0992879595772292 V
0.8503680453020043 0.3608714883315715 0.599288095823178 V
0.644695306388371 0.4992244485263386 0.4470348698742982 F
0.644695253150041 0.4992246955498876 0.9470354930624094 F
0.4992243937711603 0.6446954176136178 0.1970350077519914 F
0.4992254789220356 0.6446944995001338 0.6970349791331761 F
0.2110754639162306 0.0702699530162291 0.0036920120627999 F
0.2110742085779719 0.070270431644688 0.5036925637994997 F
0.0702690388040682 0.2110755631946736 0.2536920109087309 F
0.0702700467145416 0.2110744300807474 0.7536926717626928 F
0.6193500697477349 0.7957908607758344 0.3454416051829778 F
0.6193494973154338 0.7957914532554269 0.8454412618046092 F
0.7957913689039403 0.6193508585829482 0.0954411961958173 F
0.7957915977973135 0.6193497913239756 0.5954415783179995 F
0.9297296326590626 0.7889267992579118 0.2463072450669681 F
0.9297299012168511 0.7889248972405652 0.7463080527138869 F
0.3806482718071223 0.2042095150971173 0.1545599966047122 F
0.3806498127719505 0.2042093794966114 0.6545584203461859 F
0.1012873772287852 0.8987127413508263 0.3750000025924302 F
0.1012871434330215 0.8987123572549459 0.8749998544131837 F
0.78892508999625 0.9297303767161688 0.4963080745187069 F
0.7889239871055855 0.9297305260795047 0.9963078671142533 F
0.5007762102504281 0.3553038231678432 0.3029648984132108 F
0.5007758221110772 0.3553040681879237 0.8029648248453173 F
0.3553082425852999 0.5007714009090697 0.0529642591756461 F
0.355304349816328 0.5007764065855718 0.5529646629383892 F
0.2042069686810412 0.3806518351251476 0.4045587848739335 F
0.2042075410665694 0.3806511768841221 0.9045579214415873 F
0.8987158117378505 0.1012848481347559 0.1250005947226056 F
0.8987143591390019 0.1012854046792959 0.6249996724724612 F
