System
1.0
10.362654199567075 0.6680397148495248 5.890074447848777
3.510047580411978 10.073208645045039 5.577995800114263
-0.2770176937874708 0.4281704396772118 11.509736570530237
Li Mn O 
14 32 64 
direct
0.0687636960284449 0.0694359577056377 0.0558583699588821 Li
0.0688829273923867 0.5659381993392938 0.0603687352541715 Li
0.0683437909770611 0.5660857291559748 0.554985241278342 Li
0.5669804505259519 0.0717769674539846 0.0563010728036882 Li
0.5685708785454971 0.070266596287533 0.5553379737749133 Li
0.5704668045916729 0.5689588093900771 0.0549595933063722 Li
0.565696676935532 0.5702905348747167 0.5564567324532352 Li
0.4312690689170754 0.4299679081046736 0.9459082646097271 Li
0.4248383648248432 0.9335726300453836 0.4458864657677072 Li
0.4340413478666906 0.9308256745573135 0.9425499206244571 Li
0.9334671515411931 0.4253373173858063 0.4459812581870504 Li
0.935657678923877 0.4268318423007844 0.9439394516092129 Li
0.9332235779030104 0.9342220116959358 0.4400858311369975 Li
0.9329501366997791 0.9352349892100433 0.9400353679564372 Li
0.2496588940484515 0.2482101630367761 0.002116574584241 Mn
0.2498303880348298 0.2494833195165964 0.5009241085887517 Mn
0.2508479095239891 0.749611927557759 0.0004143677237416 Mn
0.2470320284654689 0.7468604405871195 0.5020570887334938 Mn
0.7494697836344926 0.2516700915188872 0.9999538623379937 Mn
0.7482340508883973 0.2514933027498709 0.5010959778341827 Mn
0.7537733914658058 0.7525031300082796 0.99712590865252 Mn
0.7499597091073026 0.7506096956073391 0.4977096672341729 Mn
0.2476966675160853 0.0003689326225059 0.2530959259807797 Mn
0.2486491483537341 0.0005558197598591 0.7487259900897951 Mn
0.2508748333567145 0.4989611737794152 0.2506250740735928 Mn
0.2489747282819928 0.4960126488314494 0.7535848166645376 Mn
0.7501814134931614 0.0016104188792614 0.2486820660808627 Mn
0.7528882630375524 0.003181016232104 0.7456162944308175 Mn
0.7507398161499076 0.5002631967342898 0.2492496145496402 Mn
0.7502708235884553 0.4999496447515313 0.7495185488064315 Mn
0.0002381232768971 0.2487514210061895 0.2527114261513987 Mn
0.00018471819437 0.2486859526922224 0.7490625423515521 Mn
0.000603379470682 0.7503089962357906 0.2489791543631499 Mn
0.0015969666997329 0.7479411223114545 0.7488259481560179 Mn
0.4997260482501189 0.2509491666413464 0.2502665092994311 Mn
0.4991180362319186 0.2492624129353053 0.7522490369650394 Mn
0.4997789578894566 0.7508127218362459 0.2496984473365028 Mn
0.4997891996536967 0.7501965975785562 0.7492628455655795 Mn
0.2496960933283449 0.2490203405311444 0.2512414129435734 Mn
0.2505332412735071 0.2481476834736455 0.7506563246655941 Mn
0.2509386655538625 0.7494412741733545 0.2494802781675466 Mn
0.2464816460294874 0.747030131000182 0.7550973052419977 Mn
0.7498097309441834 0.251225867234859 0.2500086880315429 Mn
0.746273522210173 0.2519759792198305 0.7513688940099433 Mn
0.7503990174995205 0.7510361077789592 0.2489339788669921 Mn
0.7542789374203774 0.7521508885390601 0.7432373384188165 Mn
0.1404932546508554 0.1390536738968954 0.3476922019527207 O
0.1385810414031584 0.1370563952825423 0.8506383094278606 O
0.1390604078841129 0.6379281905031297 0.3498158916269064 O
0.1330369593334491 0.6358329207433052 0.8545794795826666 O
0.6387963084786789 0.1385736649225049 0.3502316380636872 O
0.634026483517647 0.1409771433103272 0.8535584265534526 O
0.6377474106760251 0.6395764982928392 0.3488300595324232 O
0.6421614643537532 0.6400226079775929 0.8478203414512444 O
0.1396967359607513 0.3607226462229008 0.123237022939976 O
0.1411736977472803 0.3614199249417955 0.6232615631644384 O
0.1417919906378163 0.8613168331336158 0.1220742619978997 O
0.1229197265405663 0.8471508777275764 0.6375989583530421 O
0.64051158564368 0.3628098808207256 0.1223643541178594 O
0.6354141755303964 0.3631957544149216 0.6240684403314088 O
0.6417834382117724 0.8621848109615061 0.1189966652034091 O
0.6424924554277063 0.8622892465770701 0.620663727322624 O
0.3620839968114389 0.1394961873371826 0.1261411404445456 O
0.3624699050778959 0.138941247927361 0.6265049997669119 O
0.3629794905678381 0.640190236742741 0.1251090228650337 O
0.3566403174317498 0.6384044909272 0.6294873689950093 O
0.8615436264026632 0.1411340662748614 0.1255683142227906 O
0.8519871636012745 0.1430023924898423 0.6302981334617359 O
0.8625704466818637 0.6422429634575227 0.1240757816190315 O
0.8622602551162899 0.6406378067745698 0.6223955189487914 O
0.1378929254615588 0.1372256378473792 0.1243127920509418 O
0.1394692101078525 0.1407179045424196 0.6232674691245671 O
0.1385167051446358 0.6384352338936538 0.1234511152549257 O
0.1327831780826108 0.6342220559616579 0.6288510248559445 O
0.6376479680885997 0.1396798317008188 0.1232868984282054 O
0.6383442862037898 0.1365315016173266 0.6242241900572582 O
0.6429541660595854 0.6406632375870708 0.1173569627048005 O
0.6364320155005552 0.6400448813083961 0.6229610282247734 O
0.3620156744404215 0.3626361441050555 0.1498553202202899 O
0.3621541396357675 0.3605339590134616 0.6507772973466778 O
0.3621779753115965 0.8620544701330194 0.1506049016022174 O
0.3580589052413333 0.8592566586515868 0.6510642362234798 O
0.8625855301752575 0.3626089315646741 0.1496812192963645 O
0.8592493619024817 0.3631615412667795 0.6498844984709162 O
0.8618436581482287 0.8628599987454312 0.1482974609312735 O
0.8698836390095448 0.8588540135069755 0.644494427789585 O
0.3606496714308624 0.138759294914048 0.3774654670389443 O
0.3605009976376962 0.1375543519134063 0.8782965958689837 O
0.3599605687311273 0.6379171940607838 0.3785984921678053 O
0.3585391358635116 0.6376331194290242 0.8781263684792455 O
0.858877639265567 0.1401219728804156 0.3777129581976603 O
0.8574862610150256 0.1403226501451797 0.8781306286396987 O
0.8591492520972357 0.6389442658002109 0.3764063926450883 O
0.8770810926122811 0.6450960955853701 0.8647490209694253 O
0.1390968311144336 0.3604044097755296 0.3742459831877693 O
0.1390676043951145 0.3576937051088863 0.8753444005130687 O
0.1384061884198466 0.8571679097043503 0.3746965185031346 O
0.1382431657418003 0.8582404333958198 0.8765402816966703 O
0.6376316752622504 0.3617549860882672 0.3728543764644452 O
0.6367998078091518 0.3630675962887242 0.875868583614497 O
0.6379324550113155 0.8606559795147529 0.3729922892788685 O
0.6455503081388966 0.8616709021116141 0.8682405829706523 O
0.3628984991242551 0.3622083822571075 0.3765331160063811 O
0.3598521977743085 0.362239424166409 0.8789530765319111 O
0.3577862857915553 0.8587983538327407 0.3826638679439939 O
0.3637073188761152 0.860537892018699 0.875144139655622 O
0.8594746251047151 0.3633480623191317 0.3781819710219158 O
0.8630601121943804 0.3622528353840167 0.8754325472702047 O
0.8624807062674487 0.8618228049469334 0.3751930727310437 O
0.8691141730919646 0.8627653387980074 0.8691692124203259 O
