System                                  
   1.0000000000000000     
     5.1603910918650486    0.0047690277627450   -0.0022593928063386
    -2.5760681384815003    4.4815006803880628    0.0077169485527166
    -0.0042286402417457    0.0142348469320159    9.6985779321398127
  Cr              Cd              F             
     2     2    12
Direct
     0.6665937397256936    0.3334630829495900    0.7499831643153032
     0.3334104243679977    0.6666332736356263    0.2500205506653582
     0.0000082298992344    0.0000383068364125    0.4999898559804143
    -0.0000403017884448   -0.0000092150812850    0.0000016648127051
     0.0396066190654554    0.6688356227025117    0.1382525335415106
     0.6292566716485499    0.6687464772845325    0.3617136632776520
     0.9604779903028436    0.3312202748375793    0.8617498454624348
     0.3706959213809842    0.3312057973132537    0.6382995865942647
     0.3313619095766800    0.3714701788183918    0.1385066665865911
     0.9600564021037793    0.6287233948993860    0.6384838978956653
     0.6687062754584543    0.6285326757096807    0.8614687733126433
     0.3712576974228882    0.0398213207661572    0.8616132705295039
     0.3312103920708792    0.9597645699638188    0.3614323417604329
     0.6687769654680280    0.0401559023236491    0.6385673096328515
     0.0398834727014751    0.3712303143309339    0.3615677886325205
     0.6287375905954982    0.9601680227097582    0.1383490870001492

  0.00000000E+00  0.00000000E+00  0.00000000E+00
  0.00000000E+00  0.00000000E+00  0.00000000E+00
  0.00000000E+00  0.00000000E+00  0.00000000E+00
  0.00000000E+00  0.00000000E+00  0.00000000E+00
  0.00000000E+00  0.00000000E+00  0.00000000E+00
  0.00000000E+00  0.00000000E+00  0.00000000E+00
  0.00000000E+00  0.00000000E+00  0.00000000E+00
  0.00000000E+00  0.00000000E+00  0.00000000E+00
  0.00000000E+00  0.00000000E+00  0.00000000E+00
  0.00000000E+00  0.00000000E+00  0.00000000E+00
  0.00000000E+00  0.00000000E+00  0.00000000E+00
  0.00000000E+00  0.00000000E+00  0.00000000E+00
  0.00000000E+00  0.00000000E+00  0.00000000E+00
  0.00000000E+00  0.00000000E+00  0.00000000E+00
  0.00000000E+00  0.00000000E+00  0.00000000E+00
  0.00000000E+00  0.00000000E+00  0.00000000E+00
