System                                  
   1.0000000000000000     
     9.9607433581166909    0.0001056958001112   -0.0000647786891786
     0.0000439981623742   12.9470926208504746    0.0015808011716398
     0.0000368292324989   -0.0010197942152461    9.4285384041736204
  Li              Mn              P               O             
    16    16    16    64
Direct
     0.0105666619079064    0.1250038599207085    0.6697046675404509
     0.0105666360497710    0.6250038584503419    0.6697046381533133
     0.5105666568089432    0.1250038629220092    0.6697046504003135
     0.5105666431777544    0.6250038557562742    0.6697046455848071
     0.2394314703037412    0.1249991022736953    0.1697101684522575
     0.2394314757084227    0.6249990980749029    0.1697101648733914
     0.7394314829125612    0.1249991003491615    0.1697101461274937
     0.7394314739717753    0.6249991002695128    0.1697101922664411
     0.4894324513247904    0.3749986320585741    0.3302941690162549
     0.4894324694011630    0.8749986465810387    0.3302941669955423
     0.9894324449367266    0.3749986315021372    0.3302941580617337
     0.9894324662610361    0.8749986496457288    0.3302941768393082
     0.2605669425065644    0.3749978052587312    0.8302948887752295
     0.2605669390761249    0.8749978155153415    0.8302948894187347
     0.7605669272900614    0.3749978047070663    0.8302949139519156
     0.7605669193555149    0.8749978208027875    0.8302949153051437
     0.4999978609813128    0.2500021607576241    0.0000021107851280
     0.4999978779932220    0.7500021704504942    0.0000021071485083
     0.9999978760359669    0.2500021619474824    0.0000021104345814
     0.9999978783293467    0.7500021758647887    0.0000021073161940
     0.2499981771746963    0.2499979486498732    0.4999978104030572
     0.2499981761541712    0.7499979576704922    0.4999978157576516
     0.7499981893001657    0.2499979446136586    0.4999978117623058
     0.7499981782736397    0.7499979645343536    0.4999978158436265
     0.0000009240753167    0.0000023670425421    0.9999980836825084
     0.0000009237898052    0.5000023450420343    0.9999980706695343
     0.5000009220825132    0.0000023705674934    0.9999980782230855
     0.5000009154425561    0.5000023459841049    0.9999980748087155
     0.2500026974459826    0.4999967706206509    0.5000036865035087
     0.2500026953164106    0.9999967928545709    0.5000036868180308
     0.7500027021669444    0.4999967668359546    0.5000036938372513
     0.7500027016067430    0.9999967966848780    0.5000036842404303
     0.2401817757723508    0.3750100546336738    0.1798220332658267
     0.2401817650557297    0.8750103943481988    0.1798220370275598
     0.7401818578298796    0.3750100558814733    0.1798220325717222
     0.7401818594859935    0.8750104003928779    0.1798220400971655
     0.0098175041034155    0.3749987404358691    0.6798240902202394
     0.0098175055497755    0.8749990763483700    0.6798240763536412
     0.5098174536577192    0.3749987599663248    0.6798240688974475
     0.5098174819256472    0.8749990590855267    0.6798240462060410
     0.2598168733201108    0.1249928139414177    0.8201776576650874
     0.2598169272336378    0.6249926615874177    0.8201776924674549
     0.7598169598226063    0.1249927901613776    0.8201776947727150
     0.7598169930319437    0.6249926767627518    0.8201777267640837
     0.4901821880579943    0.1249989005874391    0.3201765865188848
     0.4901821434264049    0.6249988045880037    0.3201766294063783
     0.9901822202620177    0.1249988940460929    0.3201765527400999
     0.9901821787794274    0.6249988163995993    0.3201765993238331
     0.0746680227975520    0.2758213253710302    0.6205847315783699
     0.0746680987210309    0.7758211780370451    0.6205846460501644
     0.5746680344223551    0.2758213051292558    0.6205847175607943
     0.5746681027403837    0.7758211795872453    0.6205846579742648
     0.1753310753377418    0.2758171463409417    0.1205821845608861
     0.1753309904517550    0.7758169930171275    0.1205821019039008
     0.6753310603912199    0.2758171347532667    0.1205821719244762
     0.6753309739367432    0.7758169717865141    0.1205820892083757
     0.3246694670355420    0.2241847062337762    0.8794172931734263
     0.3246694922362046    0.7241847595842953    0.8794173306762426
     0.8246694428577994    0.2241846970801454    0.8794172871038880
     0.8246694628851902    0.7241847285120177    0.8794173125789156
     0.4253320569208828    0.2241792594965384    0.3794154995697501
     0.4253320468253413    0.7241792867581663    0.3794155141989111
     0.9253320396835818    0.2241792793276992    0.3794155137397279
     0.9253320387925116    0.7241792967047737    0.3794155290095562
     0.3246632095550920    0.0258217615638406    0.8794154106459849
     0.3246631542894878    0.5258218494251267    0.8794153679985700
     0.8246631719677915    0.0258217907255471    0.8794153895300616
     0.8246631331354217    0.5258218621010572    0.8794153604353914
     0.4253313664938701    0.0258163030316658    0.3794160788937109
     0.4253314067334685    0.5258163688906426    0.3794160528691521
     0.9253313542783523    0.0258162880781894    0.3794160964947849
     0.9253313906483319    0.5258163522582406    0.3794160666472856
     0.3937094501326791    0.3750028740483620    0.1426319586264622
     0.3937094683521178    0.8750028477839505    0.1426319542063265
     0.8937094201018643    0.3750028748223393    0.1426319592374226
     0.8937094284428191    0.8750028447385053    0.1426319701334980
     0.2872498784817273    0.1249998131132629    0.6545852267094213
     0.2872498730135859    0.6249998266126519    0.6545852147020988
     0.7872498677190586    0.1249998147246924    0.6545852110473045
     0.7872498695409298    0.6249998235297868    0.6545852137819206
     0.1062893396236218    0.1250044274170951    0.8573670368770991
     0.1062893142946833    0.6250044333331816    0.8573670256246709
     0.6062892928172438    0.1250044259960345    0.8573670349108452
     0.6062892802873613    0.6250044362251280    0.8573670452195784
     0.1437098017719137    0.1249955731647934    0.3573691155202354
     0.1437098220330266    0.6249955823565775    0.3573691260835055
     0.6437098219886914    0.1249955734101770    0.3573691084624015
     0.6437098314621367    0.6249955834869108    0.3573691224709046
     0.0372505370897925    0.3749994832711057    0.8454146678902467
     0.0372505349850569    0.8749994510627733    0.8454146769827564
     0.5372505423589496    0.3749994787619153    0.8454146865637446
     0.5372505365978092    0.8749994511020021    0.8454146943304121
     0.2127501347476210    0.3749991177570443    0.3454151139461829
     0.2127501440654911    0.8749990909833436    0.3454151140038399
     0.7127501300669445    0.3749991191105747    0.3454151305494153
     0.7127501340527781    0.8749990915718979    0.3454151226830176
     0.1753345516224885    0.4741785349999092    0.1205860609671937
     0.1753346458371652    0.9741783819134170    0.1205861523955519
     0.6753345384666298    0.4741785519308795    0.1205860562135135
     0.6753346293368662    0.9741783933341096    0.1205861334630708
     0.4627506597762386    0.1250010791522977    0.1545856319414640
     0.4627506786140033    0.6250010879908877    0.1545856125666139
     0.9627506595681572    0.1250010797204819    0.1545856498637629
     0.9627506596760785    0.6250010880998521    0.1545856255326355
     0.3562902503819208    0.3750004034201390    0.6426307091330720
     0.3562902441011856    0.8750003771691686    0.6426307246763646
     0.8562902169593180    0.3750004031438161    0.6426307177534658
     0.8562902210104091    0.8750003769944419    0.6426307235170069
     0.0746670753503711    0.4741835283004486    0.6205837613198214
     0.0746669808769950    0.9741833708664094    0.6205838520657198
     0.5746670765005996    0.4741835302275076    0.6205837640445090
     0.5746669903314818    0.9741833885363043    0.6205838446950049

  0.00000000E+00  0.00000000E+00  0.00000000E+00
  0.00000000E+00  0.00000000E+00  0.00000000E+00
  0.00000000E+00  0.00000000E+00  0.00000000E+00
  0.00000000E+00  0.00000000E+00  0.00000000E+00
  0.00000000E+00  0.00000000E+00  0.00000000E+00
  0.00000000E+00  0.00000000E+00  0.00000000E+00
  0.00000000E+00  0.00000000E+00  0.00000000E+00
  0.00000000E+00  0.00000000E+00  0.00000000E+00
  0.00000000E+00  0.00000000E+00  0.00000000E+00
  0.00000000E+00  0.00000000E+00  0.00000000E+00
  0.00000000E+00  0.00000000E+00  0.00000000E+00
  0.00000000E+00  0.00000000E+00  0.00000000E+00
  0.00000000E+00  0.00000000E+00  0.00000000E+00
  0.00000000E+00  0.00000000E+00  0.00000000E+00
  0.00000000E+00  0.00000000E+00  0.00000000E+00
  0.00000000E+00  0.00000000E+00  0.00000000E+00
  0.00000000E+00  0.00000000E+00  0.00000000E+00
  0.00000000E+00  0.00000000E+00  0.00000000E+00
  0.00000000E+00  0.00000000E+00  0.00000000E+00
  0.00000000E+00  0.00000000E+00  0.00000000E+00
  0.00000000E+00  0.00000000E+00  0.00000000E+00
  0.00000000E+00  0.00000000E+00  0.00000000E+00
  0.00000000E+00  0.00000000E+00  0.00000000E+00
  0.00000000E+00  0.00000000E+00  0.00000000E+00
  0.00000000E+00  0.00000000E+00  0.00000000E+00
  0.00000000E+00  0.00000000E+00  0.00000000E+00
  0.00000000E+00  0.00000000E+00  0.00000000E+00
  0.00000000E+00  0.00000000E+00  0.00000000E+00
  0.00000000E+00  0.00000000E+00  0.00000000E+00
  0.00000000E+00  0.00000000E+00  0.00000000E+00
  0.00000000E+00  0.00000000E+00  0.00000000E+00
  0.00000000E+00  0.00000000E+00  0.00000000E+00
  0.00000000E+00  0.00000000E+00  0.00000000E+00
  0.00000000E+00  0.00000000E+00  0.00000000E+00
  0.00000000E+00  0.00000000E+00  0.00000000E+00
  0.00000000E+00  0.00000000E+00  0.00000000E+00
  0.00000000E+00  0.00000000E+00  0.00000000E+00
  0.00000000E+00  0.00000000E+00  0.00000000E+00
  0.00000000E+00  0.00000000E+00  0.00000000E+00
  0.00000000E+00  0.00000000E+00  0.00000000E+00
  0.00000000E+00  0.00000000E+00  0.00000000E+00
  0.00000000E+00  0.00000000E+00  0.00000000E+00
  0.00000000E+00  0.00000000E+00  0.00000000E+00
  0.00000000E+00  0.00000000E+00  0.00000000E+00
  0.00000000E+00  0.00000000E+00  0.00000000E+00
  0.00000000E+00  0.00000000E+00  0.00000000E+00
  0.00000000E+00  0.00000000E+00  0.00000000E+00
  0.00000000E+00  0.00000000E+00  0.00000000E+00
  0.00000000E+00  0.00000000E+00  0.00000000E+00
  0.00000000E+00  0.00000000E+00  0.00000000E+00
  0.00000000E+00  0.00000000E+00  0.00000000E+00
  0.00000000E+00  0.00000000E+00  0.00000000E+00
  0.00000000E+00  0.00000000E+00  0.00000000E+00
  0.00000000E+00  0.00000000E+00  0.00000000E+00
  0.00000000E+00  0.00000000E+00  0.00000000E+00
  0.00000000E+00  0.00000000E+00  0.00000000E+00
  0.00000000E+00  0.00000000E+00  0.00000000E+00
  0.00000000E+00  0.00000000E+00  0.00000000E+00
  0.00000000E+00  0.00000000E+00  0.00000000E+00
  0.00000000E+00  0.00000000E+00  0.00000000E+00
  0.00000000E+00  0.00000000E+00  0.00000000E+00
  0.00000000E+00  0.00000000E+00  0.00000000E+00
  0.00000000E+00  0.00000000E+00  0.00000000E+00
  0.00000000E+00  0.00000000E+00  0.00000000E+00
  0.00000000E+00  0.00000000E+00  0.00000000E+00
  0.00000000E+00  0.00000000E+00  0.00000000E+00
  0.00000000E+00  0.00000000E+00  0.00000000E+00
  0.00000000E+00  0.00000000E+00  0.00000000E+00
  0.00000000E+00  0.00000000E+00  0.00000000E+00
  0.00000000E+00  0.00000000E+00  0.00000000E+00
  0.00000000E+00  0.00000000E+00  0.00000000E+00
  0.00000000E+00  0.00000000E+00  0.00000000E+00
  0.00000000E+00  0.00000000E+00  0.00000000E+00
  0.00000000E+00  0.00000000E+00  0.00000000E+00
  0.00000000E+00  0.00000000E+00  0.00000000E+00
  0.00000000E+00  0.00000000E+00  0.00000000E+00
  0.00000000E+00  0.00000000E+00  0.00000000E+00
  0.00000000E+00  0.00000000E+00  0.00000000E+00
  0.00000000E+00  0.00000000E+00  0.00000000E+00
  0.00000000E+00  0.00000000E+00  0.00000000E+00
  0.00000000E+00  0.00000000E+00  0.00000000E+00
  0.00000000E+00  0.00000000E+00  0.00000000E+00
  0.00000000E+00  0.00000000E+00  0.00000000E+00
  0.00000000E+00  0.00000000E+00  0.00000000E+00
  0.00000000E+00  0.00000000E+00  0.00000000E+00
  0.00000000E+00  0.00000000E+00  0.00000000E+00
  0.00000000E+00  0.00000000E+00  0.00000000E+00
  0.00000000E+00  0.00000000E+00  0.00000000E+00
  0.00000000E+00  0.00000000E+00  0.00000000E+00
  0.00000000E+00  0.00000000E+00  0.00000000E+00
  0.00000000E+00  0.00000000E+00  0.00000000E+00
  0.00000000E+00  0.00000000E+00  0.00000000E+00
  0.00000000E+00  0.00000000E+00  0.00000000E+00
  0.00000000E+00  0.00000000E+00  0.00000000E+00
  0.00000000E+00  0.00000000E+00  0.00000000E+00
  0.00000000E+00  0.00000000E+00  0.00000000E+00
  0.00000000E+00  0.00000000E+00  0.00000000E+00
  0.00000000E+00  0.00000000E+00  0.00000000E+00
  0.00000000E+00  0.00000000E+00  0.00000000E+00
  0.00000000E+00  0.00000000E+00  0.00000000E+00
  0.00000000E+00  0.00000000E+00  0.00000000E+00
  0.00000000E+00  0.00000000E+00  0.00000000E+00
  0.00000000E+00  0.00000000E+00  0.00000000E+00
  0.00000000E+00  0.00000000E+00  0.00000000E+00
  0.00000000E+00  0.00000000E+00  0.00000000E+00
  0.00000000E+00  0.00000000E+00  0.00000000E+00
  0.00000000E+00  0.00000000E+00  0.00000000E+00
  0.00000000E+00  0.00000000E+00  0.00000000E+00
  0.00000000E+00  0.00000000E+00  0.00000000E+00
  0.00000000E+00  0.00000000E+00  0.00000000E+00
  0.00000000E+00  0.00000000E+00  0.00000000E+00
  0.00000000E+00  0.00000000E+00  0.00000000E+00
