System                                  
   1.0000000000000000     
    11.3414376695480694   -0.0647836135991604   -0.2488026780888000
    -5.6337010728795018    9.9288513910399363    0.0710431474792025
     0.0222419509143507    0.0786910209071783    9.2036924770866690
  Li              Mn              Co              Ni              O             
    13    12     8    12    64
Direct
     0.1698098451694932    0.3376628751096447    0.8967757169310584
     0.1702222912070977    0.8383312111843976    0.8960611790367414
     0.6702432332383128    0.3384795033521151    0.8919566119497166
     0.6727805844814533    0.8397735866242936    0.8963105009345648
     0.4982226394352742    0.5001756847028436    0.9901005843286481
     0.4922044724748434    0.4898758214749176    0.4965020962008130
     0.4949951889217828    0.9966624731086828    0.4937968410044454
     0.9954506569011056    0.4944879362666612    0.4930707300362466
     0.9941009679249271    0.9950540942183245    0.4943492236338108
     0.3323504339508225    0.1616148338809905    0.4017300959948621
     0.3311501482117547    0.6655347888722329    0.4029819487699249
     0.8303353482357708    0.1621632715520325    0.4017683460393210
     0.8326583465384205    0.6643551819352801    0.3979578011418541
     0.0840927018588620    0.4172249887226372    0.2064247143222673
     0.0868049394948770    0.9176729972181832    0.2064095990970205
     0.5865596795868709    0.4151136378009930    0.2114580057212914
     0.5870162916370995    0.9167619333919326    0.2076561542714882
     0.0872469088410159    0.1697596068867286    0.2059320673848370
     0.0849116624619765    0.6696653307717144    0.2050921113435432
     0.5860669593397613    0.1687021916038981    0.2061411279846805
     0.5864351063314746    0.6719072376040993    0.2132739959936517
     0.1655025633691104    0.0816837498811766    0.7231768071293386
     0.1670339999611651    0.5827007289008675    0.7187893666660301
     0.6656306324885681    0.0830576259900748    0.7202965423907778
     0.6715620468521137    0.5817031069414449    0.7083304084771006
     0.1656931856389277    0.3286911872968837    0.4843268019099218
     0.1653722105933906    0.8272368271364159    0.4808742715356926
     0.6705689947971980    0.3290754166159496    0.4807919151408720
     0.6626813345759694    0.8278340521090429    0.4838294127944404
     0.3390441690283307    0.1702312512787140    0.9836963974656687
     0.3403685013536422    0.6748065110418373    0.9846822086022258
     0.8413878636209658    0.1726898656796915    0.9855276292495010
     0.8436170790321343    0.6753959769825660    0.9830308420441893
     0.4154639980598281    0.0829506773276182    0.7178754193358338
     0.4184882641149972    0.5883952578615513    0.7130485586490494
     0.9149600032334581    0.0831802308830778    0.7178104788713388
     0.9194916275139163    0.5854067471195464    0.7168918848648403
     0.3314754468052952    0.4182348084661590    0.2112891056985250
     0.3314542609998810    0.9151703256377189    0.2035554180265100
     0.8320370705376696    0.4151924676106287    0.2029451491388120
     0.8321073072656680    0.9165284665048393    0.2061907631311267
     0.4127998261634493    0.3278837304773808    0.7109256244961036
     0.4138094982929323    0.8324588084371063    0.7189949455338626
     0.9145310767717632    0.3302558563543862    0.7185958060006952
     0.9146384696595391    0.8319730947889631    0.7174831510701598
     0.1730621675824597    0.0879474317255044    0.1043564286690546
     0.1724423794845400    0.5868994452455958    0.1022541534222886
     0.6697577531881004    0.0851837461042090    0.1000570266308827
     0.6667973694460544    0.5848638197311667    0.0999206840897150
     0.4229020304526227    0.3367609913856324    0.0929145877166457
     0.4146797328244428    0.8271491262521242    0.0954002426920296
     0.9218412851052797    0.3372851949800337    0.0909620321309363
     0.9199664860509725    0.8301324592600867    0.0941697790816379
     0.3309390378774469    0.1629342187516351    0.6138575888379267
     0.3338942397944640    0.6720641646697453    0.6132736527377463
     0.8337723194256901    0.1673118168446414    0.6153924710876677
     0.8394125307411269    0.6717334780313308    0.6104807148070763
     0.2578661184150446    0.0213861475948163    0.8510384744626237
     0.2666469023363133    0.5256043173674160    0.8456649187826754
     0.7595856082598682    0.0241095105168828    0.8514490595968329
     0.7645990166178085    0.5247391902744345    0.8427790780788390
     0.2510386789942861    0.2327665807536989    0.8513828997618484
     0.2598589729789697    0.7417006688701961    0.8417535070441288
     0.7623457053341037    0.2428860837270407    0.8418556761847003
     0.7607845211010602    0.7408207014382859    0.8384123722754302
     0.3231267762828702    0.4079136653571763    0.5931573096599898
     0.3331728085630122    0.9107698865917037    0.5970793837764866
     0.8357204405860755    0.4093216395551337    0.5958308537159878
     0.8325489779221210    0.9114875175186005    0.5971760935228437
     0.2374010176318523    0.2573353353599581    0.3453708295785507
     0.2315610254901017    0.7507360597720789    0.3442221425941281
     0.7334771867755520    0.2492913620663594    0.3415345028029933
     0.7316860813307333    0.7518278558369390    0.3484988024149643
     0.0185879552891539    0.2588006537152038    0.3360379360248077
     0.0183345257092632    0.7588815316905142    0.3338506136552614
     0.5189924492408721    0.2584112267909722    0.3356265762130921
     0.5157579944867660    0.7584305608334410    0.3365952479830731
     0.0836407625540282    0.1629127234901748    0.5975058986414266
     0.0812742546728390    0.6588589567799804    0.6000297264703477
     0.5839792235115239    0.1615424485638542    0.5989351707045728
     0.5786404787478139    0.6587308502846719    0.5946100144789102
     0.9939205830548509    0.9958185738555715    0.8180626584643008
     0.9988928268994499    0.4956009341258755    0.8175860612270360
     0.4960881556137946    0.9974337766557994    0.8190656155203137
     0.4999456150349544    0.4966720322338529    0.8011764636197131
     0.0092850410876831    0.0048996540162438    0.3047397603042039
     0.9970501930131829    0.4990457759964260    0.3013800861744604
     0.4976348052892914    0.9984290761913901    0.3015836040154555
     0.5004074406083502    0.4989092752413120    0.3069182009856701
     0.1690210938825849    0.3377545368940622    0.1040968048042785
     0.1685676247951255    0.8343906224685920    0.1013547349223586
     0.6684153021243324    0.3348470881014420    0.1015521170737504
     0.6582658695449790    0.8288751748836537    0.1004651213652757
     0.4809383294964217    0.2470207833846130    0.8495785801936017
     0.4828348230335063    0.7505879601571529    0.8495232203014553
     0.9827619273925122    0.2482907371377117    0.8491127900087376
     0.9845745173439995    0.7520395994559235    0.8474127541960657
     0.0800777744740133    0.4150147907417732    0.6063147163992324
     0.0797013302015099    0.9166553995442352    0.6072177294783396
     0.5939217127473556    0.4220080683440237    0.5944238546516047
     0.5784013066875237    0.9164156045055660    0.6088438437746768
     0.2308187971528026    0.4784392504368596    0.3504541277056145
     0.2379366404194357    0.9762370434952253    0.3442298687665465
     0.7411859598771307    0.4772530450646018    0.3409453714784830
     0.7313410384168746    0.9775786744903859    0.3476394998097377
     0.4197212490349409    0.0945044549196187    0.0928105542892802
     0.4218962531102549    0.5879969195048370    0.0922265629808140
     0.9202234947160465    0.0972035519255676    0.0955312274336021
     0.9213439165821996    0.5949599563773961    0.0903481491646749

  0.00000000E+00  0.00000000E+00  0.00000000E+00
  0.00000000E+00  0.00000000E+00  0.00000000E+00
  0.00000000E+00  0.00000000E+00  0.00000000E+00
  0.00000000E+00  0.00000000E+00  0.00000000E+00
  0.00000000E+00  0.00000000E+00  0.00000000E+00
  0.00000000E+00  0.00000000E+00  0.00000000E+00
  0.00000000E+00  0.00000000E+00  0.00000000E+00
  0.00000000E+00  0.00000000E+00  0.00000000E+00
  0.00000000E+00  0.00000000E+00  0.00000000E+00
  0.00000000E+00  0.00000000E+00  0.00000000E+00
  0.00000000E+00  0.00000000E+00  0.00000000E+00
  0.00000000E+00  0.00000000E+00  0.00000000E+00
  0.00000000E+00  0.00000000E+00  0.00000000E+00
  0.00000000E+00  0.00000000E+00  0.00000000E+00
  0.00000000E+00  0.00000000E+00  0.00000000E+00
  0.00000000E+00  0.00000000E+00  0.00000000E+00
  0.00000000E+00  0.00000000E+00  0.00000000E+00
  0.00000000E+00  0.00000000E+00  0.00000000E+00
  0.00000000E+00  0.00000000E+00  0.00000000E+00
  0.00000000E+00  0.00000000E+00  0.00000000E+00
  0.00000000E+00  0.00000000E+00  0.00000000E+00
  0.00000000E+00  0.00000000E+00  0.00000000E+00
  0.00000000E+00  0.00000000E+00  0.00000000E+00
  0.00000000E+00  0.00000000E+00  0.00000000E+00
  0.00000000E+00  0.00000000E+00  0.00000000E+00
  0.00000000E+00  0.00000000E+00  0.00000000E+00
  0.00000000E+00  0.00000000E+00  0.00000000E+00
  0.00000000E+00  0.00000000E+00  0.00000000E+00
  0.00000000E+00  0.00000000E+00  0.00000000E+00
  0.00000000E+00  0.00000000E+00  0.00000000E+00
  0.00000000E+00  0.00000000E+00  0.00000000E+00
  0.00000000E+00  0.00000000E+00  0.00000000E+00
  0.00000000E+00  0.00000000E+00  0.00000000E+00
  0.00000000E+00  0.00000000E+00  0.00000000E+00
  0.00000000E+00  0.00000000E+00  0.00000000E+00
  0.00000000E+00  0.00000000E+00  0.00000000E+00
  0.00000000E+00  0.00000000E+00  0.00000000E+00
  0.00000000E+00  0.00000000E+00  0.00000000E+00
  0.00000000E+00  0.00000000E+00  0.00000000E+00
  0.00000000E+00  0.00000000E+00  0.00000000E+00
  0.00000000E+00  0.00000000E+00  0.00000000E+00
  0.00000000E+00  0.00000000E+00  0.00000000E+00
  0.00000000E+00  0.00000000E+00  0.00000000E+00
  0.00000000E+00  0.00000000E+00  0.00000000E+00
  0.00000000E+00  0.00000000E+00  0.00000000E+00
  0.00000000E+00  0.00000000E+00  0.00000000E+00
  0.00000000E+00  0.00000000E+00  0.00000000E+00
  0.00000000E+00  0.00000000E+00  0.00000000E+00
  0.00000000E+00  0.00000000E+00  0.00000000E+00
  0.00000000E+00  0.00000000E+00  0.00000000E+00
  0.00000000E+00  0.00000000E+00  0.00000000E+00
  0.00000000E+00  0.00000000E+00  0.00000000E+00
  0.00000000E+00  0.00000000E+00  0.00000000E+00
  0.00000000E+00  0.00000000E+00  0.00000000E+00
  0.00000000E+00  0.00000000E+00  0.00000000E+00
  0.00000000E+00  0.00000000E+00  0.00000000E+00
  0.00000000E+00  0.00000000E+00  0.00000000E+00
  0.00000000E+00  0.00000000E+00  0.00000000E+00
  0.00000000E+00  0.00000000E+00  0.00000000E+00
  0.00000000E+00  0.00000000E+00  0.00000000E+00
  0.00000000E+00  0.00000000E+00  0.00000000E+00
  0.00000000E+00  0.00000000E+00  0.00000000E+00
  0.00000000E+00  0.00000000E+00  0.00000000E+00
  0.00000000E+00  0.00000000E+00  0.00000000E+00
  0.00000000E+00  0.00000000E+00  0.00000000E+00
  0.00000000E+00  0.00000000E+00  0.00000000E+00
  0.00000000E+00  0.00000000E+00  0.00000000E+00
  0.00000000E+00  0.00000000E+00  0.00000000E+00
  0.00000000E+00  0.00000000E+00  0.00000000E+00
  0.00000000E+00  0.00000000E+00  0.00000000E+00
  0.00000000E+00  0.00000000E+00  0.00000000E+00
  0.00000000E+00  0.00000000E+00  0.00000000E+00
  0.00000000E+00  0.00000000E+00  0.00000000E+00
  0.00000000E+00  0.00000000E+00  0.00000000E+00
  0.00000000E+00  0.00000000E+00  0.00000000E+00
  0.00000000E+00  0.00000000E+00  0.00000000E+00
  0.00000000E+00  0.00000000E+00  0.00000000E+00
  0.00000000E+00  0.00000000E+00  0.00000000E+00
  0.00000000E+00  0.00000000E+00  0.00000000E+00
  0.00000000E+00  0.00000000E+00  0.00000000E+00
  0.00000000E+00  0.00000000E+00  0.00000000E+00
  0.00000000E+00  0.00000000E+00  0.00000000E+00
  0.00000000E+00  0.00000000E+00  0.00000000E+00
  0.00000000E+00  0.00000000E+00  0.00000000E+00
  0.00000000E+00  0.00000000E+00  0.00000000E+00
  0.00000000E+00  0.00000000E+00  0.00000000E+00
  0.00000000E+00  0.00000000E+00  0.00000000E+00
  0.00000000E+00  0.00000000E+00  0.00000000E+00
  0.00000000E+00  0.00000000E+00  0.00000000E+00
  0.00000000E+00  0.00000000E+00  0.00000000E+00
  0.00000000E+00  0.00000000E+00  0.00000000E+00
  0.00000000E+00  0.00000000E+00  0.00000000E+00
  0.00000000E+00  0.00000000E+00  0.00000000E+00
  0.00000000E+00  0.00000000E+00  0.00000000E+00
  0.00000000E+00  0.00000000E+00  0.00000000E+00
  0.00000000E+00  0.00000000E+00  0.00000000E+00
  0.00000000E+00  0.00000000E+00  0.00000000E+00
  0.00000000E+00  0.00000000E+00  0.00000000E+00
  0.00000000E+00  0.00000000E+00  0.00000000E+00
  0.00000000E+00  0.00000000E+00  0.00000000E+00
  0.00000000E+00  0.00000000E+00  0.00000000E+00
  0.00000000E+00  0.00000000E+00  0.00000000E+00
  0.00000000E+00  0.00000000E+00  0.00000000E+00
  0.00000000E+00  0.00000000E+00  0.00000000E+00
  0.00000000E+00  0.00000000E+00  0.00000000E+00
  0.00000000E+00  0.00000000E+00  0.00000000E+00
  0.00000000E+00  0.00000000E+00  0.00000000E+00
  0.00000000E+00  0.00000000E+00  0.00000000E+00
  0.00000000E+00  0.00000000E+00  0.00000000E+00
