System
1.0
11.34143766954807 -0.0647836135991604 -0.2488026780888
-5.633701072879502 9.928851391039936 0.0710431474792025
0.0222419509143507 0.0786910209071783 9.203692477086669
Li Mn Co Ni O 
13 12 8 12 64 
direct
0.1698532183862462 0.3387176178765106 0.8976353643364617 Li
0.1717831458189773 0.8381328772568873 0.8969405344971119 Li
0.668956267081155 0.3386521132480291 0.8917485351227094 Li
0.6703926372565748 0.8392308980649041 0.8945963582170677 Li
0.497387105711676 0.5002730241136426 0.9911794092036337 Li
0.4934145604088571 0.4897436936449983 0.496270599057807 Li
0.4944388402147536 0.9955144360006392 0.4934104906470785 Li
0.996416021289835 0.494400034817779 0.4930273894746602 Li
0.992755576797263 0.9941919412086918 0.496944345905845 Li
0.3329285098538706 0.1634302517286053 0.4009827155387122 Li
0.3312032310415602 0.6643636258259937 0.4026502522910262 Li
0.8301825187979895 0.1629146541281407 0.4002996647714494 Li
0.8317515012458122 0.6635903021040336 0.3979861238129978 Li
0.0859315282386625 0.4176957981983052 0.209099806521233 Mn
0.0879870892680676 0.9163928613171382 0.2140390714647127 Mn
0.5859251167753826 0.4151262343598227 0.2109512230865104 Mn
0.5871156214612596 0.9166973504009167 0.2073070795317643 Mn
0.0882267216959192 0.1726364685511202 0.2141114687356797 Mn
0.085426607790418 0.6692799547801933 0.2064114284374342 Mn
0.5857081356092121 0.168813698724705 0.2054270210189707 Mn
0.5861656574821078 0.672145023333339 0.2125419420214266 Mn
0.1672849826170743 0.0819209266714927 0.7175519822589796 Mn
0.1665902317691857 0.5816699446705502 0.7199455166677292 Mn
0.6655808971925805 0.0836610268295624 0.7185441146870614 Mn
0.6710795482855324 0.5817112204156547 0.7080470332859056 Mn
0.1645158159105694 0.3292639781326931 0.4843065656777922 Co
0.166181095900456 0.8260192969631369 0.4826209761807107 Co
0.6706595747216216 0.3301755318971948 0.4803949048250302 Co
0.6625068112411017 0.826403178127175 0.4837669224017957 Co
0.3388468951077758 0.1697818602570291 0.9825888089830043 Co
0.3393925519373641 0.6743058985966448 0.9847051660019527 Co
0.8415027642519315 0.1759409674110189 0.9846068815634823 Co
0.843257726249841 0.6735527519158406 0.9818902734592083 Co
0.4156255167749951 0.0833085276548334 0.7168083201379286 Ni
0.4181818172102141 0.5870765320099338 0.7124441026919506 Ni
0.9156702716631674 0.0857947177019779 0.7133367063259362 Ni
0.9193928467254076 0.5848334498734037 0.7164130623680544 Ni
0.3315133621258175 0.4185447735434922 0.2125786671504139 Ni
0.3320217886991602 0.9148353509799092 0.2038704010381768 Ni
0.8311455600744421 0.4147920505014532 0.2022421723915839 Ni
0.831262377573952 0.91698773657901 0.2145837085068829 Ni
0.4105711647837439 0.3289788193689527 0.7129868553360925 Ni
0.4137471585246129 0.8317120475887269 0.7192052018070216 Ni
0.9142410976533696 0.3317267194472889 0.7184043687124078 Ni
0.913977481154128 0.8294357064571679 0.7128547056986827 Ni
0.1680553155576294 0.0843621334988302 0.102731795879102 O
0.170421840788725 0.5862750760882465 0.1016099809639585 O
0.6710766130641127 0.0858733095973759 0.099477897949186 O
0.667016409400971 0.5851960860206807 0.0992759859008167 O
0.4222275318996564 0.3361031723670286 0.0928762388602769 O
0.4150600930732735 0.827931754570412 0.095108421072256 O
0.9181019036937068 0.331681094477661 0.0937496838803838 O
0.9237835278614831 0.8353312283347594 0.0946373914172493 O
0.3304328799882688 0.162313830554737 0.6113526391877045 O
0.3337721023104032 0.6701164563480203 0.6141225773225929 O
0.8336024751872884 0.1703333676611432 0.6133592896301259 O
0.8393873633702291 0.6694479914826456 0.609467757251665 O
0.2586318195929247 0.0210326983617117 0.8485563382345789 O
0.2644914352895482 0.5252723071862166 0.8487354484446543 O
0.7648111204739587 0.0262003590589579 0.8471549738127265 O
0.7638166119064008 0.5246409582903169 0.8442133851738173 O
0.247916917229371 0.2301991868593508 0.8517712793570477 O
0.2600855662152974 0.7417992678550848 0.8420735979313594 O
0.7605298832721877 0.2433342788675818 0.8407789804299526 O
0.7627279607192778 0.7418598024791567 0.8381468663450915 O
0.329774343546644 0.410310459783224 0.5944066428187936 O
0.3332413758539245 0.9094668319086996 0.5970859399133792 O
0.8361813469044116 0.4106156901677071 0.5950680814312825 O
0.829636060531972 0.9080976736959411 0.5945820236826732 O
0.2386397048991158 0.2594365574132884 0.3467881904708021 O
0.2319247473806008 0.7497773780757983 0.3442757128113227 O
0.7333363612686226 0.2500435324006507 0.3408952254351424 O
0.7311910467091604 0.7509489818443653 0.3484151797362653 O
0.0167300948825373 0.2589658474229102 0.3365234309319094 O
0.0182854208997082 0.7575442384803587 0.3366942392773362 O
0.5192522527210627 0.2587054112042668 0.3354418890020366 O
0.5152034114845577 0.7583228953592295 0.3353698353247458 O
0.0807736666470177 0.1605626682138635 0.598524868470608 O
0.082223737580422 0.658591823202451 0.599670324564632 O
0.5828906544553022 0.1611492178684245 0.5985214617172854 O
0.5808616827846358 0.6590682503666061 0.5935967935819487 O
0.9941600621208351 0.9945494308489738 0.8066768543342303 O
0.9977029933580497 0.4964230996262509 0.8187657818479884 O
0.4966709251466169 0.997511453861409 0.8183927481032406 O
0.5018001995704009 0.5010120051209139 0.8031802176600711 O
0.0112098302935621 0.0056770548804669 0.3096148597696057 O
0.996235557485361 0.4984531072337015 0.3011729186032703 O
0.4980878625294464 -0.0012613256582282 0.3012232615964238 O
0.500799974071268 0.4994324633830806 0.3064406919190549 O
0.1692060269943291 0.3372863025274531 0.1062213184857649 O
0.1682565170528431 0.8344433226398118 0.1032630085230329 O
0.6677062323753556 0.3347639934182555 0.1010564022343139 O
0.660084850969906 0.8302248979836457 0.1006183266528898 O
0.4799461545257356 0.2487785302717481 0.8480921145120757 O
0.48214482344148 0.7499467218548029 0.8497666228548957 O
0.9826363330445922 0.2505988637054873 0.849702843118365 O
0.985192323503335 0.7523734701202622 0.8471700484139371 O
0.0799053386968792 0.4155723867926046 0.60894392937069 O
0.0804386856816088 0.9148640859718599 0.6032758310084757 O
0.5947595072832454 0.4219298122333616 0.5960497626321218 O
0.5784091843860096 0.9159679889555336 0.6091412227804444 O
0.2312553977079527 0.4797425119528646 0.3498098535433335 O
0.2399723697225579 0.9762308976308247 0.3458666521757364 O
0.7406549732690828 0.4775274792447912 0.3407130044189514 O
0.730223591564488 0.9778697875673259 0.3492436476327825 O
0.4196496184219399 0.0946578175444907 0.092385811740221 O
0.4211896779484037 0.5879241990467923 0.0924420605379591 O
0.9256707272745551 0.0947335944695799 0.092940215307087 O
0.9198823051553368 0.5956080416128858 0.0912502699370642 O
