Mn12O24                                 
   1.00000000000000     
    11.4294996262000002    0.0000000000000000    0.0000000000000000
    -5.7149085917000004    9.8966311518999994    0.0000000000000000
     0.0030943225000000   -0.0162083707000000   15.2881275770999991
   Mn   O    Ni   Na
    36    96    12     1
Direct
  0.0849372462453876  0.1704129559056112  0.3276519637025282
  0.0851301544467131  0.6705431679654587  0.3270839014812389
  0.5856330740597774  0.1702191716063706  0.3243342999548687
  0.5856799165093736  0.6714141900070213  0.3248737532736775
  0.3343771226568616  0.1702496282122069  0.3244071884410167
  0.3351330759522324  0.6705281570179791  0.3271557140233562
  0.8352326037942068  0.1703974184015631  0.3276106113478688
  0.8354487112602640  0.6713763902486458  0.3248092875466723
  0.3344660335594525  0.4201743604371694  0.3245542684969768
  0.3351606288128261  0.9205721790814245  0.3270576215013511
  0.8354055649197039  0.4201482814248833  0.3244627822960708
  0.8353057729424778  0.9208573970140199  0.3278210633377179
  0.1646708850303095  0.0789924918334405  0.6727692070815491
  0.1646410857668176  0.5791117973587702  0.6713771129981200
  0.6645036383640505  0.0790042845158397  0.6727642392277104
  0.6651873787996950  0.5802194033339935  0.6815234553310323
  0.1646901958066559  0.3293122689601881  0.6730289536861115
  0.1646038547986559  0.8291297266434654  0.6710906841554669
  0.6651034698183008  0.3285965024706395  0.6806399007652798
  0.6645434433270646  0.8291881810407571  0.6732154046109111
  0.4136904561448915  0.3285427533342811  0.6807017609886410
  0.4146898141169188  0.8291184611632544  0.6710851594377196
  0.9148173050607779  0.3293162877027535  0.6729871029614719
  0.9148475891651139  0.8291755632704048  0.6731994080971300
  0.5000044777886418  0.5000147529975180  0.0001280472939542
  0.5000276571124755  0.0000137727911128 -0.0001008596072307
  0.0000596483985537  0.5000374652966396 -0.0000731981962245
 -0.0000138305977577 -0.0000061066802875 -0.0000699717821513
  0.5000338531918943  0.2500083573415527  0.0000595391179621
  0.5000164794010528  0.7500325948334294 -0.0000521273156769
  0.0000337840659772  0.2500245261681516 -0.0000418755327623
  0.0000459894439827  0.7500593043674373 -0.0000784560647295
  0.2500044037608660  0.5000132491168128 -0.0000716335376710
  0.2499974812134339  0.0000202048278113 -0.0000916395955862
  0.7500580512702180  0.5000274585834708  0.0001036050831507
  0.7500125939947978 -0.0000110822708087 -0.0000590260916767
 -0.0036507478490991  0.4959322762700074  0.6096775608209641
 -0.0024562136815736  0.9959121498541632  0.6097037853120952
  0.5000002805480621  0.4940799738624178  0.6146583483286282
  0.4978744659079233  0.9972114514855839  0.6092763870010687
 -0.0021845836078548  0.2453412180778311  0.6096771438331590
 -0.0039895160254979  0.7438124113648745  0.6096655950643582
  0.4999592611154114  0.2496398173226121  0.6138659449648011
  0.4980469139765100  0.7437091427915907  0.6097441377396202
  0.2498175958939952  0.4959181357521106  0.6097101562261319
  0.2495712329086628 -0.0028263508007804  0.6092940692269817
  0.7442651537508582  0.4941426329047914  0.6146042245830385
  0.7486207153782278  0.9959309640082485  0.6097280889492990
  0.2517167656276498  0.2476696683802797  0.6115275357182016
  0.2478308876520475  0.7454695479727584  0.6076056835731958
  0.7462169338170598  0.2476725864465875  0.6114636753210989
  0.7459735531190766  0.7417200718445012  0.6121373061355153
  0.0024002254462548  0.0036942591084354  0.3904507575904598
  0.0009373715344599  0.5029744208215214  0.3893325337210364
  0.5028437563993924  0.0049077683590520  0.3893967013615625
  0.5039855863079438  0.5017399569918485  0.3868876891305174
  0.0021815729008842  0.2546532342069530  0.3903222236351043
  0.0010617286108604  0.7540181336969289  0.3895839009715027
  0.5040084862976580  0.2581418731558822  0.3866030203586225
  0.5027396028437009  0.7540859472530681  0.3896337040822939
  0.2517909125601543  0.0048555289426585  0.3893632462703230
  0.2516871969551164  0.5030058552642529  0.3894460105000456
  0.7510115557319631  0.0036976597957566  0.3904258034397484
  0.7475099578822415  0.5017655268288926  0.3868342134677769
  0.2536462387951349  0.2548026077552751  0.3894626049397822
  0.2518473211176967  0.7539983509912774  0.3907286050286860
  0.7508986578840775  0.2548220349990674  0.3894175792215936
  0.7511442951045828  0.7525491266499847  0.3897400904318926
  0.1671433245165162  0.0855940290963841  0.2639718824676198
  0.1679445998821588  0.5861363876096127  0.2646022974940289
  0.6683189947773650  0.0856010053245915  0.2639143266536500
  0.6693735780115275  0.5891856561646476  0.2601547375470474
  0.1673327186982751  0.3373225668282794  0.2640027488152897
  0.1679843931637371  0.8375823970443965  0.2645363496338242
  0.6693767868505240  0.3362036602418961  0.2598537771324542
  0.6683502640440619  0.8383372225169694  0.2642045586776396
  0.4180769760564729  0.0863792495396747  0.2622832406730990
  0.4183195531858182  0.5875604793560687  0.2625425542135055
  0.9184659739450654  0.0870688317015667  0.2643427875644593
  0.9189105402284042  0.5875258017493326  0.2624419171850577
  0.4165957184870069  0.3361809581840177  0.2598893275521469
  0.4194254114898703  0.8375965417779407  0.2645966155333941
  0.9198027584534780  0.3372977188027784  0.2639519114509029
  0.9197788475694092  0.8383428684063280  0.2642264632865715
  0.1671760778509250  0.0844216027107477  0.0627745850343592
  0.1672743905762006  0.5845478318904349  0.0627075607819078
  0.6672046562587961  0.0844252470688432  0.0627726284289233
  0.6672603396973339  0.5845099687575459  0.0628559482255713
  0.1672305128020762  0.3329124285388508  0.0627823440565938
  0.1672474733395817  0.8329249307988392  0.0627017810812964
  0.6672550749707005  0.3328657035948430  0.0627754268029858
  0.6672180030590814  0.8329263654380751  0.0627811320036426
  0.4166723428503242  0.0833701255980183  0.0631972678498810
  0.4166369140692771  0.5834502925153812  0.0632615683463727
  0.9166895651389422  0.0834034347208067  0.0632228714839604
  0.9168138932522530  0.5834759266519477  0.0632346804246884
  0.4156105465295835  0.3328462156798186  0.0627949897206589
  0.4156316781781302  0.8329282414568300  0.0627115345470195
  0.9156978866298092  0.3329326292622347  0.0627692190554308
  0.9157126065574182  0.8329361859414465  0.0627850644542073
  0.0843942398917572  0.1671426132204863  0.9371979207316253
  0.0843602871358503  0.6671476346669706  0.9371242835887539
  0.5844655283233329  0.1672059810964618  0.9372329999809328
  0.5844309130023961  0.6670615097866276  0.9372845530124666
  0.0833127241270508  0.4165641163290640  0.9366282259608401
  0.0833000294846616  0.9166142373456572  0.9365983761784683
  0.5833358310067837  0.4166315032836126  0.9369173318068342
  0.5833363395747313  0.9165768786941103  0.9366042060155058
  0.3328255406145863  0.1672097697004261  0.9372326071542119
  0.3328096266084339  0.6671110847902815  0.9371203953207662
  0.8327797352596049  0.1671149575404104  0.9372031064735816
  0.8326905890589252  0.6670611819125589  0.9372704205266527
  0.3328374334281790  0.4154504754918505  0.9372730259636882
  0.3327886772814682  0.9155465006623229  0.9371188595088652
  0.8327083048739815  0.4154518614926181  0.9372530464028145
  0.8327217831961252  0.9154102666054627  0.9371866347047085
  0.0800015681023607  0.1618210642108271  0.7351756542595868
  0.0810447389296690  0.6624657075707538  0.7345104191245233
  0.5793419638195088  0.1592445643931349  0.7380106753019844
  0.5794501174108400  0.6639171374416389  0.7388335283676747
  0.0816128980526983  0.4131266182863556  0.7356291841393869
  0.0818677848063347  0.9123405496221020  0.7354785687872509
  0.5811747685714088  0.4121834957490010  0.7440765845364413
  0.5806449872680468  0.9123654870003564  0.7354513938174130
  0.3300059401175029  0.1592019311019170  0.7380342299908486
  0.3316037098982322  0.6624703881710013  0.7345236937544042
  0.8319160407709857  0.1618107346051710  0.7351551302904098
  0.8346931983048133  0.6639804790203003  0.7388120589869239
  0.3299075242279700  0.4140750406940478  0.7384941101305607
  0.3315975130899084  0.9130009888385852  0.7341585383691875
  0.8343115947850426  0.4140807793663400  0.7384351139830001
  0.8321830150752659  0.9141866083103616  0.7353582042267226
  0.0851044724291882  0.4204820606788092  0.3272602905171533
  0.0851665757096785  0.9205082071708303  0.3273525852909404
  0.5851671230613372  0.4205962216990733  0.3191214450169403
  0.5851321498451456  0.9205420233569108  0.3273432290180505
  0.4145850834914243  0.0789558396514420  0.6731045676341229
  0.4145970904425993  0.5791543840126480  0.6738286739503814
  0.9147159340768751  0.0792290545200136  0.6722417210786942
  0.9147933499625532  0.5792071140066016  0.6737628195370727
  0.2499874496411377  0.2499832809665819  0.0000329054785194
  0.2500199544922406  0.7500320386642301 -0.0000984392196387
  0.7500360844355993  0.2499833008199139  0.0000293540832157
  0.7500076845151467  0.7499902167652961  0.0000680568812235
  0.5836504173722288  0.4172962450363090  0.4998149006931538
