System                                  
   1.0000000000000000     
     5.4431199286934424    0.0410099848458994    9.0013190145852846
     2.5099106719979165    4.8796789323152101    9.0202303543679392
     0.0050245970656154    0.0476904065515592   10.5269257845816977
  Na              Co              O             
     2     8    16
Direct
     0.2475351377670352    0.7480855722058303    0.2536682963924922
     0.7475978158846832    0.2451713480812065    0.2567761218508678
     0.9930813128240811   -0.0057866115726017    0.9909322367093596
     1.0086195485728924    0.0058525177035305    0.5064282437500703
     1.0073989349832886    0.5062815425478180    1.0030534043947645
     0.9940596489858444    0.4936522947712163    0.4944496579835548
     0.5071761455924317    1.0058316350236165    1.0044426569463212
     0.4924314684870524   -0.0048428833353491    0.4943734767801876
     0.4915378696645099    0.4925258260335386    0.9964028172391403
     0.5070277132577399    0.5073401111773332    0.5063181957151920
     0.1393521665464841    0.1402463617044550    0.1380908149192471
     0.1269048262169762    0.1303390625354403    0.6313418454401289
     0.1304098242360844    0.6288910336347333    0.1289035084919804
     0.1411879502037005    0.6430742618079572    0.6366386138243079
     0.6253420452009449    0.1340581668264974    0.1287940687602940
     0.6406494545701952    0.1422270649517156    0.6387548519411415
     0.6392916877590550    0.6402114475200484    0.1379590151356375
     0.6337594658209894    0.6371976415642078    0.6248020855928741
     0.3614525739552317    0.3600232284655396    0.3609683745593087
     0.3689378005513524    0.3678306465102097    0.8739712210561733
     0.3747371900840636    0.8705972522708203    0.3650416562912825
     0.3584115148710031    0.8557600860433890    0.8654767173916963
     0.8714204938799760    0.3681285380424960    0.3682101867500653
     0.8575761299824148    0.3565302057058647    0.8656833912028731
     0.8645998214911864    0.8635698369075404    0.3530848330884142
     0.8711008370467609    0.8653306731360308    0.8743445498724910

  0.00000000E+00  0.00000000E+00  0.00000000E+00
  0.00000000E+00  0.00000000E+00  0.00000000E+00
  0.00000000E+00  0.00000000E+00  0.00000000E+00
  0.00000000E+00  0.00000000E+00  0.00000000E+00
  0.00000000E+00  0.00000000E+00  0.00000000E+00
  0.00000000E+00  0.00000000E+00  0.00000000E+00
  0.00000000E+00  0.00000000E+00  0.00000000E+00
  0.00000000E+00  0.00000000E+00  0.00000000E+00
  0.00000000E+00  0.00000000E+00  0.00000000E+00
  0.00000000E+00  0.00000000E+00  0.00000000E+00
  0.00000000E+00  0.00000000E+00  0.00000000E+00
  0.00000000E+00  0.00000000E+00  0.00000000E+00
  0.00000000E+00  0.00000000E+00  0.00000000E+00
  0.00000000E+00  0.00000000E+00  0.00000000E+00
  0.00000000E+00  0.00000000E+00  0.00000000E+00
  0.00000000E+00  0.00000000E+00  0.00000000E+00
  0.00000000E+00  0.00000000E+00  0.00000000E+00
  0.00000000E+00  0.00000000E+00  0.00000000E+00
  0.00000000E+00  0.00000000E+00  0.00000000E+00
  0.00000000E+00  0.00000000E+00  0.00000000E+00
  0.00000000E+00  0.00000000E+00  0.00000000E+00
  0.00000000E+00  0.00000000E+00  0.00000000E+00
  0.00000000E+00  0.00000000E+00  0.00000000E+00
  0.00000000E+00  0.00000000E+00  0.00000000E+00
  0.00000000E+00  0.00000000E+00  0.00000000E+00
  0.00000000E+00  0.00000000E+00  0.00000000E+00
