System
1.0
5.621555129532051 0.1213307407061678 9.783305458817726
2.692554988380876 4.962081941361138 9.785390434131461
0.2329668506078914 0.1482346118403877 11.304833095757678
Na Co O 
2 8 16 
direct
0.2508138469445886 0.74907523970533 0.2502431764191613 Na
0.7524123856643951 0.2491864209679808 0.2484801504823326 Na
0.9993300978458404 0.0002854814068254 0.9991302535397162 Co
0.9996304404700745 0.0013891632691976 0.5003736961486431 Co
0.9993531741447828 0.499454074894395 0.9994564579643352 Co
0.9993300785751678 0.4996646263061706 0.5008391540944941 Co
0.5006397132039062 -0.0003163245932464 0.9998585079027175 Co
0.4999154844730584 1.0007512121005038 0.5007708125899496 Co
0.4999813785255597 0.4991576028325633 0.9997286848726724 Co
0.5005146449493435 0.5002269828361895 0.5005863486708646 Co
0.1383970965007478 0.132477649268552 0.1364632206752307 O
0.1397754000006792 0.1377802694964571 0.6335742941916558 O
0.1363403399520961 0.6363665185635271 0.1384724342593864 O
0.1369645114922756 0.6386586910365697 0.6354234302440266 O
0.6354181353367268 0.1377970028403743 0.1420399088654842 O
0.6364122311547328 0.1365541655227172 0.6378152645421992 O
0.6349968928483464 0.6338427546149974 0.1385180224268949 O
0.635645962029011 0.6398983347109508 0.6365271905379988 O
0.3640243376964106 0.3658037795759247 0.3627619457988016 O
0.3583144331076203 0.3663190291193619 0.8627648933509333 O
0.3636847418421504 0.8627647914778177 0.3615229434684486 O
0.3638918620444083 0.8617398383068178 0.8632334423852859 O
0.8635230589609265 0.362317680704529 0.3589240864409111 O
0.864289482088178 0.3638304523590919 0.8619552654786595 O
0.8665323010960737 0.8618492975720107 0.3639716099905872 O
0.8614673474888455 0.8612521253675002 0.8654756467385285 O
