System                                  
   1.0000000000000000     
     9.9607399999999995    0.0001100000000000   -0.0000600000000000
     0.0000400000000000   12.9470899999999993    0.0015800000000000
     0.0000400000000000   -0.0010200000000000    9.4285399999999999
  Li              Mn              P               O             
     5    16    16    64
Direct
     0.7243968401785245    0.1300594218409105    0.1763423200199075
     0.4721807881922778    0.8786574035228221    0.3215879111171854
     0.9738996946686806    0.8772542760447337    0.3214600807774797
     0.2758925410678418    0.3719996337075009    0.8233189241246717
     0.7763963336814577    0.3722249286537462    0.8310222923055801
     0.5005538116264092    0.2576379149798649    0.0118478796629971
     0.4959380474484128    0.7466841093962254    0.9938026700000948
     0.0130780974794460    0.2477449960573342    0.0019611648611541
     0.0027423907863675    0.7438907494230318    0.9920651345809515
     0.2451134375440776    0.2429027505677296    0.4918943977147282
     0.2453647067781810    0.7483423079648460    0.5105919475697860
     0.7508294641078449    0.2449811846798465    0.4979637355495237
     0.7449317521618654    0.7479937347078792    0.5090611617843224
     0.0045290634593942    0.0036302373806918    0.9820869796760370
     0.0028398783831662    0.4976516830371479    0.0203196959478245
     0.5050197493323014    0.0078683136982419    0.9829886934671863
     0.5041648533733845    0.5026368591644734    0.0166429150659177
     0.2610470152020156    0.5003557310627524    0.5052139923683888
     0.2359751862622630    0.0011564744680342    0.5002586827781095
     0.7636033093008242    0.4997209153804951    0.5070833089387015
     0.7386268068810874    0.9993064907559225    0.5061272485579551
     0.2371412226469523    0.3770507967510449    0.1897687680227402
     0.2225644034464768    0.8770810206663229    0.1625641155675639
     0.7461222218711053    0.3787514787991701    0.1914817567947110
     0.7234171688013835    0.8794480848613077    0.1637935349086571
     0.0297095777186088    0.3734220773044702    0.6691817617432383
     0.0086627427993187    0.8649465104368482    0.6787288231329078
     0.5307800192308066    0.3739507396344813    0.6686095217764711
     0.5081522695910234    0.8642438630412802    0.6790838661496608
     0.2678948175405348    0.1332510790297148    0.8197423548811669
     0.2667053645934810    0.6074038584938831    0.8290264291998793
     0.7695170760765228    0.1331213437326588    0.8209635448748452
     0.7725871749916565    0.6109897118660549    0.8301398348256314
     0.4767269283293267    0.1165373380475248    0.3211874634657844
     0.4816626782045895    0.6413236106013539    0.3302865489002265
     0.9783497327475340    0.1137882089135990    0.3226054453908315
     0.9818878233071978    0.6395176988192866    0.3297639446096008
     0.0903831412750647    0.2753437101734972    0.6000593688139106
     0.0872584170227664    0.7686805833922661    0.6270956366844683
     0.5933996429920153    0.2760298615956731    0.6002376741725373
     0.5878959858273959    0.7684784146591508    0.6268807719385451
     0.1641096924871614    0.2795423779753364    0.1432445740306572
     0.1580741182275744    0.7795371877881431    0.0959874579827171
     0.6820196987999205    0.2763187617622195    0.1418388924340187
     0.6535346964178216    0.7873372058012231    0.0908771815169695
     0.3302407940107580    0.2340267515421811    0.8759776790117833
     0.3430181689287636    0.7029990252915745    0.8858487305597107
     0.8351811165363768    0.2328909458417301    0.8772526937586039
     0.8479236677322504    0.7071023693443576    0.8856206327586771
     0.4004922832142617    0.2107422975729145    0.3828056899690991
     0.4039953216522281    0.7392782811319583    0.3833422354276125
     0.8963554808215785    0.2079061784975849    0.3778854862121108
     0.9043385253331642    0.7377534790925456    0.3818509507872573
     0.3478891353662437    0.0378755982043123    0.8740106613430010
     0.3337533114057074    0.5075091269020998    0.8807283754694404
     0.8479105252495029    0.0370464050579814    0.8753018163440400
     0.8441813401561085    0.5118743824141352    0.8894183422251432
     0.4126221052292185    0.0155980798952125    0.3738741671517493
     0.4095218107623101    0.5444155353276920    0.3875394472900442
     0.9126065050337842    0.0131611582666502    0.3766945262185334
     0.9100906063679786    0.5428088984620262    0.3883131417629797
     0.3834568151129613    0.3799253330131938    0.1322682445417813
     0.3760397309271990    0.8776205183718817    0.1301866835310567
     0.8939454958909868    0.3836582424683938    0.1284997320409015
     0.8765883008163946    0.8768621940425790    0.1315560681194143
     0.2758672717738558    0.1313517383790166    0.6515840099850807
     0.2794261683045838    0.6129994761150651    0.6596098185553431
     0.7770256824120443    0.1310995281272012    0.6528859927067097
     0.7883270437069932    0.6108132314626333    0.6613253192470261
     0.1202137684859865    0.1236742655683523    0.8769177159400725
     0.1176719554722106    0.6113581898975069    0.8856730127668810
     0.6232370154276594    0.1262168559438057    0.8814896989079305
     0.6252945865014339    0.6143956890055486    0.8812536869907607
     0.1256617949793592    0.1217917931787189    0.3743541796130957
     0.1301151599252446    0.6442865927469298    0.3843779202843924
     0.6284673998581368    0.1218120725602474    0.3682681740461604
     0.6300845813573542    0.6454818415322700    0.3853291580343153
     0.0600054886826035    0.3709737940989540    0.8329661988176509
     0.0157127996838626    0.8661895313469272    0.8492510352755367
     0.5606576835373470    0.3715841656049865    0.8322569127503127
     0.5129723549181026    0.8649346076240801    0.8491011204948666
     0.2323562590667414    0.3794437629227791    0.3622301179993951
     0.1894889086052119    0.8776305165725526    0.3260213526424072
     0.7425688859731759    0.3770633837203327    0.3643293260055268
     0.6892798985664258    0.8771656188639267    0.3268064445990867
     0.1619929809026521    0.4753608469005872    0.1356734851591095
     0.1552993004473203    0.9739900685713637    0.0961882562716207
     0.6672596994523121    0.4725782346431436    0.1434188440353130
     0.6623759734549963    0.9819828053222845    0.1026613221909873
     0.4720009310026530    0.1233177193923875    0.1532239315362809
     0.4727373291108822    0.6398221643500344    0.1626343361586257
     0.9567371568158192    0.1173172520636385    0.1542908035640276
     0.9715967353656956    0.6355538693742999    0.1620329020104880
     0.3777838990156541    0.3771622183139245    0.6337949918824611
     0.3594891994094929    0.8575775341587669    0.6192540057839975
     0.8758826987995801    0.3765696336598211    0.6371228579113060
     0.8593653754878707    0.8576198873124401    0.6200224975914710
     0.0992865028642516    0.4693790386411890    0.6046717261514686
     0.0730019425749370    0.9644046724643360    0.6266207506164049
     0.6008796527155206    0.4698141905245501    0.6031551523395122
     0.5731386138450862    0.9641744850686392    0.6285991612820248

  0.00000000E+00  0.00000000E+00  0.00000000E+00
  0.00000000E+00  0.00000000E+00  0.00000000E+00
  0.00000000E+00  0.00000000E+00  0.00000000E+00
  0.00000000E+00  0.00000000E+00  0.00000000E+00
  0.00000000E+00  0.00000000E+00  0.00000000E+00
  0.00000000E+00  0.00000000E+00  0.00000000E+00
  0.00000000E+00  0.00000000E+00  0.00000000E+00
  0.00000000E+00  0.00000000E+00  0.00000000E+00
  0.00000000E+00  0.00000000E+00  0.00000000E+00
  0.00000000E+00  0.00000000E+00  0.00000000E+00
  0.00000000E+00  0.00000000E+00  0.00000000E+00
  0.00000000E+00  0.00000000E+00  0.00000000E+00
  0.00000000E+00  0.00000000E+00  0.00000000E+00
  0.00000000E+00  0.00000000E+00  0.00000000E+00
  0.00000000E+00  0.00000000E+00  0.00000000E+00
  0.00000000E+00  0.00000000E+00  0.00000000E+00
  0.00000000E+00  0.00000000E+00  0.00000000E+00
  0.00000000E+00  0.00000000E+00  0.00000000E+00
  0.00000000E+00  0.00000000E+00  0.00000000E+00
  0.00000000E+00  0.00000000E+00  0.00000000E+00
  0.00000000E+00  0.00000000E+00  0.00000000E+00
  0.00000000E+00  0.00000000E+00  0.00000000E+00
  0.00000000E+00  0.00000000E+00  0.00000000E+00
  0.00000000E+00  0.00000000E+00  0.00000000E+00
  0.00000000E+00  0.00000000E+00  0.00000000E+00
  0.00000000E+00  0.00000000E+00  0.00000000E+00
  0.00000000E+00  0.00000000E+00  0.00000000E+00
  0.00000000E+00  0.00000000E+00  0.00000000E+00
  0.00000000E+00  0.00000000E+00  0.00000000E+00
  0.00000000E+00  0.00000000E+00  0.00000000E+00
  0.00000000E+00  0.00000000E+00  0.00000000E+00
  0.00000000E+00  0.00000000E+00  0.00000000E+00
  0.00000000E+00  0.00000000E+00  0.00000000E+00
  0.00000000E+00  0.00000000E+00  0.00000000E+00
  0.00000000E+00  0.00000000E+00  0.00000000E+00
  0.00000000E+00  0.00000000E+00  0.00000000E+00
  0.00000000E+00  0.00000000E+00  0.00000000E+00
  0.00000000E+00  0.00000000E+00  0.00000000E+00
  0.00000000E+00  0.00000000E+00  0.00000000E+00
  0.00000000E+00  0.00000000E+00  0.00000000E+00
  0.00000000E+00  0.00000000E+00  0.00000000E+00
  0.00000000E+00  0.00000000E+00  0.00000000E+00
  0.00000000E+00  0.00000000E+00  0.00000000E+00
  0.00000000E+00  0.00000000E+00  0.00000000E+00
  0.00000000E+00  0.00000000E+00  0.00000000E+00
  0.00000000E+00  0.00000000E+00  0.00000000E+00
  0.00000000E+00  0.00000000E+00  0.00000000E+00
  0.00000000E+00  0.00000000E+00  0.00000000E+00
  0.00000000E+00  0.00000000E+00  0.00000000E+00
  0.00000000E+00  0.00000000E+00  0.00000000E+00
  0.00000000E+00  0.00000000E+00  0.00000000E+00
  0.00000000E+00  0.00000000E+00  0.00000000E+00
  0.00000000E+00  0.00000000E+00  0.00000000E+00
  0.00000000E+00  0.00000000E+00  0.00000000E+00
  0.00000000E+00  0.00000000E+00  0.00000000E+00
  0.00000000E+00  0.00000000E+00  0.00000000E+00
  0.00000000E+00  0.00000000E+00  0.00000000E+00
  0.00000000E+00  0.00000000E+00  0.00000000E+00
  0.00000000E+00  0.00000000E+00  0.00000000E+00
  0.00000000E+00  0.00000000E+00  0.00000000E+00
  0.00000000E+00  0.00000000E+00  0.00000000E+00
  0.00000000E+00  0.00000000E+00  0.00000000E+00
  0.00000000E+00  0.00000000E+00  0.00000000E+00
  0.00000000E+00  0.00000000E+00  0.00000000E+00
  0.00000000E+00  0.00000000E+00  0.00000000E+00
  0.00000000E+00  0.00000000E+00  0.00000000E+00
  0.00000000E+00  0.00000000E+00  0.00000000E+00
  0.00000000E+00  0.00000000E+00  0.00000000E+00
  0.00000000E+00  0.00000000E+00  0.00000000E+00
  0.00000000E+00  0.00000000E+00  0.00000000E+00
  0.00000000E+00  0.00000000E+00  0.00000000E+00
  0.00000000E+00  0.00000000E+00  0.00000000E+00
  0.00000000E+00  0.00000000E+00  0.00000000E+00
  0.00000000E+00  0.00000000E+00  0.00000000E+00
  0.00000000E+00  0.00000000E+00  0.00000000E+00
  0.00000000E+00  0.00000000E+00  0.00000000E+00
  0.00000000E+00  0.00000000E+00  0.00000000E+00
  0.00000000E+00  0.00000000E+00  0.00000000E+00
  0.00000000E+00  0.00000000E+00  0.00000000E+00
  0.00000000E+00  0.00000000E+00  0.00000000E+00
  0.00000000E+00  0.00000000E+00  0.00000000E+00
  0.00000000E+00  0.00000000E+00  0.00000000E+00
  0.00000000E+00  0.00000000E+00  0.00000000E+00
  0.00000000E+00  0.00000000E+00  0.00000000E+00
  0.00000000E+00  0.00000000E+00  0.00000000E+00
  0.00000000E+00  0.00000000E+00  0.00000000E+00
  0.00000000E+00  0.00000000E+00  0.00000000E+00
  0.00000000E+00  0.00000000E+00  0.00000000E+00
  0.00000000E+00  0.00000000E+00  0.00000000E+00
  0.00000000E+00  0.00000000E+00  0.00000000E+00
  0.00000000E+00  0.00000000E+00  0.00000000E+00
  0.00000000E+00  0.00000000E+00  0.00000000E+00
  0.00000000E+00  0.00000000E+00  0.00000000E+00
  0.00000000E+00  0.00000000E+00  0.00000000E+00
  0.00000000E+00  0.00000000E+00  0.00000000E+00
  0.00000000E+00  0.00000000E+00  0.00000000E+00
  0.00000000E+00  0.00000000E+00  0.00000000E+00
  0.00000000E+00  0.00000000E+00  0.00000000E+00
  0.00000000E+00  0.00000000E+00  0.00000000E+00
  0.00000000E+00  0.00000000E+00  0.00000000E+00
  0.00000000E+00  0.00000000E+00  0.00000000E+00
