System                                  
   1.0000000000000000     
     4.9837316139955252   -0.0000050160159282   -0.0001230488619902
     0.0000061857558671    4.9245173382635619   -0.0062774898449489
    -0.0002136097861083   -0.0107953087399672    8.6177520620920252
  Ta              O             
     4    12
Direct
     0.5605742356953877    0.6144915731689070    0.2515868670851434
     0.9394227284202792    0.1144908586377023    0.2515902302027039
     0.4394072555297102    0.3855084824272325    0.7484480910693720
     0.0605951598854199    0.8855093556864928    0.7484442941633854
     0.2551822671299096    0.6373689200317050    0.6024253206975357
     0.2454571863899454    0.1380428299133311    0.8942725511807718
     0.2545533824929992    0.6380432012028817    0.8942737321825661
     0.2448117068686175    0.1373696388127607    0.6024239922561199
     0.7448178169388392    0.3626462741512541    0.3975684578811656
     0.2476269998034871    0.3674332942826292    0.2502329655713983
     0.7523672869543113    0.6325799164510394    0.7497702949929831
     0.7476344308077822    0.1325818111719068    0.7497658928935566
     0.7551891381193117    0.8626437941879834    0.3975695390179452
     0.2523722983755774    0.8674326660515479    0.2502324040920422
     0.7545537384382551    0.8619292265950901    0.1056980875196836
     0.7454343681501697    0.3619281572275287    0.1056972791936280

  0.00000000E+00  0.00000000E+00  0.00000000E+00
  0.00000000E+00  0.00000000E+00  0.00000000E+00
  0.00000000E+00  0.00000000E+00  0.00000000E+00
  0.00000000E+00  0.00000000E+00  0.00000000E+00
  0.00000000E+00  0.00000000E+00  0.00000000E+00
  0.00000000E+00  0.00000000E+00  0.00000000E+00
  0.00000000E+00  0.00000000E+00  0.00000000E+00
  0.00000000E+00  0.00000000E+00  0.00000000E+00
  0.00000000E+00  0.00000000E+00  0.00000000E+00
  0.00000000E+00  0.00000000E+00  0.00000000E+00
  0.00000000E+00  0.00000000E+00  0.00000000E+00
  0.00000000E+00  0.00000000E+00  0.00000000E+00
  0.00000000E+00  0.00000000E+00  0.00000000E+00
  0.00000000E+00  0.00000000E+00  0.00000000E+00
  0.00000000E+00  0.00000000E+00  0.00000000E+00
  0.00000000E+00  0.00000000E+00  0.00000000E+00
