System
1.0
4.739711251263974 -0.0 3e-16
8e-16 5.112552338691504 3e-16
-0.0 -0.0 8.413870634919835
Ta O 
4 12 
direct
0.5553577447015773 0.5605896207672778 0.25 Ta
0.9446422552984228 0.0605896207672775 0.25 Ta
0.4446422552984226 0.4394103792327225 0.75 Ta
0.0553577447015775 0.9394103792327221 0.75 Ta
0.2963335153674844 0.698983772861968 0.5994941599614354 O
0.2036664846325156 0.1989837728619679 0.9005058400385645 O
0.2963335153674844 0.698983772861968 0.9005058400385645 O
0.2036664846325156 0.1989837728619679 0.5994941599614354 O
0.7036664846325155 0.3010162271380322 0.40050584003856465 O
0.18962236454846282 0.3967816615645113 0.25 O
0.8103776354515372 0.6032183384354886 0.75 O
0.6896223645484628 0.10321833843548861 0.75 O
0.7963335153674845 0.801016227138032 0.40050584003856465 O
0.3103776354515371 0.8967816615645114 0.25 O
0.7963335153674845 0.801016227138032 0.0994941599614354 O
0.7036664846325156 0.3010162271380322 0.0994941599614354 O
