System
1.0
9.89953 -0.00301 -0.00069
0.00402 12.69174 -0.0001
0.00068 0.00017 9.35778
Li Fe P O 
15 16 16 64 
direct
0.23707069356044613 0.6249903551682874 0.1698584834221539 c
0.7370707018693835 0.12499037136759161 0.1698584832904959 c
0.7370706931402297 0.6249903579639392 0.1698584858662829 c
0.4870681429986297 0.37499397968972187 0.3301404597096102 c
0.4870681562132976 0.8749939851791882 0.3301404335614023 c
0.9870681590030344 0.37499399678250284 0.3301404458968403 c
0.9870681516190817 0.8749940205285701 0.3301404564508643 c
0.012931228002989098 0.1250060388159627 0.6698592907417855 c
0.012931221550589596 0.6250060251704425 0.6698592919666133 c
0.5129312051141216 0.12500604085620912 0.6698593055759807 c
0.5129312265006392 0.6250060033300545 0.6698592835026568 c
0.2629284965015548 0.3750095939921811 0.8301408652522886 c
0.2629284934125881 0.8750096069435686 0.8301408725710224 c
0.7629284826379373 0.37500960824480817 0.8301408724560831 c
0.762928454675282 0.8750096111478388 0.8301408622286356 c
0.9999998063606272 1.31385268999396e-08 0.9999999588107872 b
0.9999997930933331 0.4999999675129842 0.9999999271637452 b
0.49999981161764023 0.9999999715721951 0.9999999175211198 b
0.4999997880572308 0.4999999542910724 0.9999999143328799 b
0.9999998045849778 0.2500000038106823 0.9999999516155983 b
0.9999998048052753 0.7500000121234996 0.9999999411402208 b
0.49999979157513974 0.2500000159966312 0.9999999301160333 b
0.49999980395629995 0.7500000271351482 0.9999999030487476 b
0.24999974116115836 4.571291999999857e-08 0.4999998638837993 b
0.2499997920252405 0.49999998805413715 0.49999988465421996 b
0.7499998319012521 3.7853338499964516e-08 0.4999998281237641 b
0.7499997657208248 0.5000000064043213 0.4999998931876063 b
0.24999977409800858 0.24999998019133043 0.49999986855951367 b
0.2499997683331711 0.7499999688883495 0.4999998647184606 b
0.749999777766311 0.2499999833253111 0.4999998654494348 b
0.7499997692191437 0.7499999725813222 0.4999998731976814 b
0.26332984400175097 0.12499937892397313 0.8215251883602238 c
0.2633299203594453 0.6249989832407649 0.8215252488826144 c
0.7633298767789777 0.1249994063154455 0.8215251940153518 c
0.7633299550794754 0.6249989307433318 0.8215252274888407 c
0.013329768550695202 0.3750155954830893 0.6784734410330974 c
0.013329863619928701 0.8750160201201702 0.6784733625949307 c
0.5133295393445844 0.37501603816544754 0.6784736511794639 c
0.5133299216228507 0.8750159945053393 0.6784734332232478 c
0.48666987056213906 0.1249844407399603 0.3215264459430991 c
0.48666977990598037 0.6249839539442209 0.321526563913995 c
0.9866700839970927 0.1249839833626408 0.3215262176939587 c
0.9866697166831196 0.6249838795962561 0.3215265635939127 c
0.2366697618295647 0.3750006227317356 0.178474680479941 c
0.23666968797316648 0.8750010233541442 0.1784746075115438 c
0.7366698205894104 0.3750005706610638 0.1784746968749467 c
0.7366696996721109 0.8750010512934769 0.1784746239468339 c
0.1098380528807354 0.1250087954640738 0.8605043221445662 c
0.109838027623827 0.6250088236179582 0.8605043245866143 c
0.6098380378894452 0.12500879977288182 0.8605043059355971 c
0.609838007896005 0.6250088284071001 0.8605043376596709 c
0.0402671747322203 0.3750008711353452 0.8447049779740979 c
0.0402671666615913 0.8750008346530082 0.8447050021594571 c
0.540267171248008 0.37500089394077074 0.8447050625075065 c
0.540267122320091 0.8750008697567815 0.8447046534191972 c
0.2902672553774179 0.1250035152475888 0.655296274758774 c
0.29026722971633645 0.6250035538404515 0.6552962486723858 c
0.7902672167900638 0.12500353603393652 0.6552962689498297 c
0.7902672305419524 0.6250035521392776 0.6552962671156186 c
0.35983706701735757 0.3750085556980854 0.6394990114281552 c
0.35983705391077747 0.8750085241965516 0.639498907420215 c
0.8598371795710664 0.3750085054357131 0.6394989986105593 c
0.8598371509059877 0.8750084924225626 0.6394990136578502 c
0.07975645097394708 0.274059391216281 0.6186002680612559 d
0.0797565527960985 0.7740592325716015 0.6186001840176357 d
0.579756311787829 0.2740594239090789 0.6186001792979886 d
0.5797565419426112 0.7740592997408171 0.6186001161957956 d
0.0797503301909436 0.4759487044576495 0.6186146922618548 d
0.0797501965277461 0.9759484731479845 0.6186148157600292 d
0.5797503141589175 0.47594872150790646 0.6186147233178527 d
0.5797502799071239 0.9759486830751729 0.618614653520988 d
0.4202493611909528 0.0240512888002133 0.3813852963620696 d
0.42024951073418254 0.5240515490407907 0.3813851445513217 d
0.9202493685425595 0.024051275771729896 0.38138526646653126 d
0.9202495510519896 0.5240515859537282 0.3813851153477004 d
0.17024162740156681 0.27404305340519336 0.1186104175850015 d
0.1702415358221994 0.7740428976342529 0.11861034357965058 d
0.6702416289847914 0.2740430606858741 0.11861043842792798 d
0.6702415379961908 0.7740428807701447 0.1186103491084833 d
0.1401626388808309 0.12499143488226712 0.3605008651977795 c
0.14016256385970696 0.6249915150179592 0.3605008547056941 c
0.6401625097907422 0.1249914807588097 0.3605008785071332 c
0.6401625326308472 0.624991505749521 0.3605008470378859 c
0.20973239744678038 0.3749964741671475 0.3447036315276383 c
0.20973240577645025 0.8749964403777182 0.3447036577869981 c
0.7097324181933284 0.37499645084882993 0.3447036375788336 c
0.709732398965559 0.8749964487265895 0.3447036539200001 c
0.45973145429045653 0.12499912127460529 0.15529040925498577 c
0.4597314683573283 0.6249991605854347 0.1552903607120071 c
0.9597314560084357 0.12499909538754851 0.15529033578987636 c
0.9597314691615039 0.6249991661433628 0.1552903683881416 c
0.3901616931395496 0.3749911978425375 0.1394956422752266 c
0.3901617151925315 0.8749911675016099 0.1394956500726389 c
0.8901616660742403 0.37499119712821505 0.13949565739076267 c
0.8901617110558965 0.8749911613323427 0.1394956391124378 c
0.329758049060226 0.2259569346542004 0.8813894323193602 d
0.32975812018095957 0.7259570921512333 0.8813895062401158 d
0.8297580371741321 0.22595691786404593 0.8813894072794501 d
0.8297581414002315 0.7259571057364975 0.8813895103051638 d
0.1702464616154041 0.47593588386799945 0.11860542010510279 d
0.1702465936607909 0.9759356620789177 0.1186055283587485 d
0.6702464309559867 0.475935925953728 0.11860538578622319 d
0.6702465942784084 0.9759356691928163 0.1186055282844744 d
0.42024326200477363 0.22594058367065784 0.3813997030057517 d
0.42024315332689743 0.7259407743421595 0.38139978498673466 d
0.9202433970367606 0.225940554383534 0.3813997925295936 d
0.9202431427448012 0.7259407944871722 0.38139979786792705 d
0.329753199810321 0.0240641011102083 0.8813944303581482 d
0.3297530768413187 0.524064302217309 0.8813943322871686 d
0.8297532120087104 0.0240640858586549 0.8813944432022114 d
0.8297530596576567 0.5240643249469313 0.8813943232485689 d
