V8O20                                   
   1.00000000000000     
    14.2423477172999995    0.0000000000000000    0.0000000000000000
     0.0000000000000000    4.4391756058000000    0.0000000000000000
     0.0000000000000000    0.0000000000000000   23.0956039428999986
   V    O    Li
    32    80     1
Direct
  0.0001781980014684  0.0992362793430371  0.0744299262066943
  0.0001123711444337  0.1015893855785815  0.5745143026417053
  0.4998218019985319  0.0992362793430371  0.0744299262066943
  0.4998876288555665  0.1015893855785815  0.5745143026417053
  0.2500000000000000  0.0989977316068660  0.0748349666825255
  0.2500000000000000  0.0996832680786498  0.5739934170142624
  0.7500000000000000  0.1037190284146071  0.0740465035436123
  0.7500000000000000  0.1026427095451666  0.5747646016123569
  0.1253333703792825  0.8710259669912942  0.1759066653259252
  0.1251218098865142  0.8752434321930515  0.6756464528576440
  0.6246801135467445  0.8800772012970149  0.1752265105870734
  0.6249072389700711  0.8754650683542426  0.6756669675016541
  0.3746666626207166  0.8710259669912942  0.1759066653259252
  0.3748782071134836  0.8752434321930515  0.6756464528576440
  0.8753199524532539  0.8800772012970149  0.1752265105870734
  0.8750928280299309  0.8754650683542426  0.6756669675016541
  0.1253333703792825  0.8710259669912942  0.3240933346740745
  0.1251218098865142  0.8752434321930515  0.8243535471423560
  0.6246801135467445  0.8800772012970149  0.3247734894129268
  0.6249072389700711  0.8754650683542426  0.8243330324983459
  0.3746666626207166  0.8710259669912942  0.3240933346740745
  0.3748782071134836  0.8752434321930515  0.8243535471423560
  0.8753199524532539  0.8800772012970149  0.3247734894129268
  0.8750928280299309  0.8754650683542426  0.8243330324983459
  0.0001781980014684  0.0992362793430371  0.4255701037933080
  0.0001123711444337  0.1015893855785815  0.9254856563582948
  0.4998218019985319  0.0992362793430371  0.4255701037933080
  0.4998876288555665  0.1015893855785815  0.9254856563582948
  0.2500000000000000  0.0989977316068660  0.4251650233174734
  0.2500000000000000  0.0996832680786498  0.9260066239857374
  0.7500000000000000  0.1037190284146071  0.4259534864563870
  0.7500000000000000  0.1026427095451666  0.9252354393876430
  0.1244325444595208  0.9918944468837338  0.0911270578042035
  0.1249483160341213  0.9920788545429935  0.5901734741501263
  0.6255910207413657  0.9910198064706514  0.0913162787902548
  0.6249811207948280  0.9937631132214642  0.5903891844611758
  0.3755674305404807  0.9918944468837338  0.0911270578042035
  0.3750516749658816  0.9920788545429935  0.5901734741501263
  0.8744090462586362  0.9910198064706514  0.0913162787902548
  0.8750188792051720  0.9937631132214642  0.5903891844611758
 -0.0008865177309169  0.9797466571504575  0.1608009174101745
  0.0000846148305166  0.9832268321001479  0.6593520135342490
  0.5008865177309169  0.9797466571504575  0.1608009174101745
  0.4999153851694834  0.9832268321001479  0.6593520135342490
  0.2500000000000000  0.9779154651625520  0.1598241064515069
  0.2500000000000000  0.9826793738494051  0.6590937470799630
  0.7500000000000000  0.0031576021198761  0.1606863846758902
  0.7500000000000000  0.9832526624802568  0.6594453917132572
 -0.0008865177309169  0.9797466571504575  0.3391990725898245
  0.0000846148305166  0.9832268321001479  0.8406479444657475
  0.5008865177309169  0.9797466571504575  0.3391990725898245
  0.4999153851694834  0.9832268321001479  0.8406479444657475
  0.2500000000000000  0.9779154651625520  0.3401758935484929
  0.2500000000000000  0.9826793738494051  0.8409062939200368
  0.7500000000000000  0.0031576021198761  0.3393136153241099
  0.7500000000000000  0.9832526624802568  0.8405546492867426
  0.1244325444595208  0.9918944468837338  0.4088729521957973
  0.1249483160341213  0.9920788545429935  0.9098265668498735
  0.6255910207413657  0.9910198064706514  0.4086837312097463
  0.6249811207948280  0.9937631132214642  0.9096108565388240
  0.3755674305404807  0.9918944468837338  0.4088729521957973
  0.3750516749658816  0.9920788545429935  0.9098265668498735
  0.8744090462586362  0.9910198064706514  0.4086837312097463
  0.8750188792051720  0.9937631132214642  0.9096108565388240
 -0.0004834804251460  0.4622146720411553  0.4266925715520047
  0.0003807271603256  0.4642258354979000  0.9271839060251359
  0.5004834804251458  0.4622146720411553  0.4266925715520047
  0.4996192728396744  0.4642258354979000  0.9271839060251359
  0.2500000000000000  0.4617771068232173  0.4268363151242940
  0.2500000000000000  0.4623245626562425  0.9278039494468246
  0.7500000000000000  0.4666984611328255  0.4271560552160229
  0.7500000000000000  0.4652946224283606  0.9269959642405768
  0.1249484059506019  0.5083048756958600  0.3217777475135847
  0.1250656786720088  0.5125382422254839  0.8225910996156891
  0.6303506542529747  0.5166886448303303  0.3188956501633851
  0.6249156879133738  0.5127706744603795  0.8225847244379906
  0.3750515360494003  0.5083048756958600  0.3217777475135847
  0.3749342713279942  0.5125382422254839  0.8225910996156891
  0.8696492787470234  0.5166886448303303  0.3188956501633851
  0.8750842450866242  0.5127706744603795  0.8225847244379906
  0.1249484059506019  0.5083048756958600  0.1782222524864151
  0.1250656786720088  0.5125382422254839  0.6774088183843112
  0.6303506542529747  0.5166886448303303  0.1811043498366146
  0.6249156879133738  0.5127706744603795  0.6774151935620097
  0.3750515360494003  0.5083048756958600  0.1782222524864151
  0.3749342713279942  0.5125382422254839  0.6774088183843112
  0.8696492787470234  0.5166886448303303  0.1811043498366146
  0.8750842450866242  0.5127706744603795  0.6774151935620097
  0.1250337499727406  0.9827706751428661  0.2500000000000000
  0.1250902535484566  0.9838499416023735  0.7500000000000000
  0.6332190943729461  0.0020501208507497  0.2500000000000000
  0.6249256917410795  0.9838879916979060  0.7500000000000000
  0.3749662840272625  0.9827706751428661  0.2500000000000000
  0.3749097634515480  0.9838499416023735  0.7500000000000000
  0.8667809056270539  0.0020501208507498  0.2500000000000000
  0.8750743082589205  0.9838879916979060  0.7500000000000000
 -0.0005258535947664  0.9942083921179855  0.0003215765445393
 -0.0005258535947664  0.9942083921179855  0.4996784504554664
  0.5005258535947666  0.9942083921179855  0.0003215765445393
  0.5005258535947666  0.9942083921179855  0.4996784504554664
  0.2500000000000000  0.9918502382217179  0.0005875860764106
  0.2500000000000000  0.9918502382217179  0.4994124109235858
  0.7500000000000000  0.9955863524102453  0.0000868156384204
  0.7500000000000000  0.9955863524102453  0.4999131813615759
 -0.0004834804251460  0.4622146720411553  0.0733074694479948
  0.0003807271603256  0.4642258354979000  0.5728160119748644
  0.5004834804251458  0.4622146720411553  0.0733074694479948
  0.4996192728396744  0.4642258354979000  0.5728160119748644
  0.2500000000000000  0.4617771068232173  0.0731637008757072
  0.2500000000000000  0.4623245626562425  0.5721960505531754
  0.7500000000000000  0.4666984611328255  0.0728439607839787
  0.7500000000000000  0.4652946224283606  0.5730040357594232
  0.7500000000000000  0.2926690985692040  0.2500000000000000
