System
1.0
11.400938747708212 -0.127046185305991 -0.2333408100202317
-5.717220176732502 9.997921982161543 0.0770862630575056
0.0362140596339119 0.0921245990614989 9.263612084811271
Li Mn Co Ni O 
9 12 8 12 64 
direct
0.1723175503383705 0.3352915028976602 0.8960474689437938 Li
0.1698512250316892 0.8388716473213534 0.8993368371341647 Li
0.6743281927302607 0.3377660261603698 0.894626805955322 Li
0.6674449850394988 0.8375636033601783 0.89912837214931 Li
0.4955523558860482 0.4996328183947468 0.4943571272456744 Li
0.3321137131573713 0.1621424922880328 0.3979903106859765 Li
0.3307806577960891 0.6636665939480719 0.407651912268896 Li
0.8309063593863525 0.1632245990914237 0.3997046158656676 Li
0.8317577217995697 0.6669279979503736 0.404759847672151 Li
0.08279009733136 0.4133376154988027 0.2069839912131847 Mn
0.0840440253630683 0.9155153655196543 0.2098082254107373 Mn
0.5839349025961031 0.4160426723171262 0.2058589930158274 Mn
0.5832648239866939 0.9175215464478762 0.2121113204515998 Mn
0.0845144780220529 0.1656956871027931 0.2072033549731926 Mn
0.0851137692214993 0.6679348631211307 0.2104417079692484 Mn
0.5843302789255326 0.1678739952056847 0.2057683795101556 Mn
0.5854188464061615 0.670659831619757 0.2092101597181113 Mn
0.1698554525464904 0.0814769563493694 0.7036985532391266 Mn
0.1646696773474931 0.5821734745819502 0.7260843157415906 Mn
0.6681284258230146 0.0795456849687296 0.705920936138273 Mn
0.666489370631456 0.5852229268315315 0.7237294620649936 Mn
0.1657010500009196 0.3256077997634199 0.482093470905304 Co
0.1710709542712212 0.8334204658694567 0.4844349564282552 Co
0.6655448781713913 0.3276296560504425 0.4825834880831888 Co
0.671254778118894 0.8366654238266836 0.4847017549731232 Co
0.3438351458893404 0.1726408292783768 0.9797122182013108 Co
0.3363262914895914 0.670876599080178 0.9871887649562019 Co
0.8413942284111987 0.1702776221397674 0.981181742223245 Co
0.8393914653196317 0.6734371387502248 0.9857723207287022 Co
0.421301093375511 0.0880816784617988 0.7050930005909706 Ni
0.4155069033733004 0.5856818626648761 0.7216937235413005 Ni
0.9197349897143164 0.0861861722534998 0.7052334495190381 Ni
0.9162813935772733 0.5868218463685799 0.7218685741061247 Ni
0.3319119840448138 0.4174623167723382 0.2031914247040507 Ni
0.3331814950845083 0.9147121949734393 0.209403511950168 Ni
0.8318295659571017 0.4179498899066105 0.2036336636716495 Ni
0.8331417712699408 0.9171119116394244 0.2084852450886779 Ni
0.4152646564145665 0.3318977477539313 0.715534532407622 Ni
0.4123413064276136 0.8319313622462575 0.7114381960888391 Ni
0.9141461962684649 0.3299789604730009 0.7170202408470461 Ni
0.9151098350066166 0.8337958079195179 0.709022815820877 Ni
0.1710536080250784 0.0848117106722894 0.1044584772714447 O
0.1714032799256194 0.5849717596128117 0.1094350682518621 O
0.671481268490355 0.0863062687816987 0.1054645293300474 O
0.6721425879294838 0.5874263314757655 0.107694641645496 O
0.420194169625764 0.3311589749562385 0.0916863957327035 O
0.4190079253484198 0.8367208275912001 0.0965971623534946 O
0.9186917735845461 0.3273066287463591 0.0940065087893275 O
0.9180465876445637 0.8301035173029975 0.0981862268583516 O
0.3401848028719616 0.1739342949411443 0.6067994022233397 O
0.3299957531786084 0.6650419413033624 0.6180126208536463 O
0.8384620575390629 0.1712753430961502 0.6083445319915032 O
0.8319057217582219 0.6678085889110897 0.6159343382571176 O
0.2651678764347887 0.025472376646045 0.8375018864319287 O
0.2595703601660447 0.522426202821321 0.8520122770137935 O
0.7620007954453334 0.0236468715860312 0.8404802398710699 O
0.7618648225973932 0.5247137777564388 0.8491785050927187 O
0.262230063694617 0.2387756460099055 0.836823345247562 O
0.2484437670432532 0.7305595674279716 0.8544150094281397 O
0.7611106462313632 0.2373148570982775 0.8389955591055744 O
0.7516623152646015 0.7340860810354793 0.8515209419428973 O
0.3307188247915538 0.4108821240758311 0.5969495198954564 O
0.3229297904799113 0.9077300306668067 0.5927429982711845 O
0.8282288464118492 0.410033132352391 0.5989989831182974 O
0.824476860703105 0.9109109197105836 0.5910344358503219 O
0.2368360014936953 0.2562361416639641 0.3420796781516252 O
0.2301364985553494 0.7481431278279993 0.3497267620914071 O
0.7374742412634937 0.2588670964180511 0.3409877332106388 O
0.7327011185912852 0.7540026711149158 0.3463710195866181 O
0.0178579813960068 0.2558717283883682 0.335158872706292 O
0.0197064907533414 0.7584072098300506 0.3384458311084584 O
0.5183269043644448 0.258144496557107 0.3336111735010486 O
0.518964540711791 0.7593386679551427 0.3388782482286448 O
0.0899568029859042 0.1710766970580945 0.5945057081551179 O
0.0796686482602051 0.66094031249608 0.6046673866343502 O
0.5884566618025264 0.1690242035520099 0.59413869370844 O
0.5813254480320948 0.6627998828963323 0.6034404071750363 O
0.0005834775040995 1.0004038020826886 0.8017598123007026 O
0.9922466398423263 0.4927875482742867 0.8178147071533429 O
0.499290445598619 0.999937416864584 0.8029250806444548 O
0.4937986156503615 0.4945316680048004 0.8165983634065779 O
-0.0001839553114579 -0.0016450534090909 0.3082053209810922 O
0.9969443784812622 0.4958923147985008 0.3032302929239921 O
0.4992985589760293 0.0007625977586722 0.3085579035656859 O
0.4979616875844371 0.4982865395947421 0.3019262500680904 O
0.1665950965674175 0.3336882055002128 0.1032488247024023 O
0.1683997174628643 0.833693639006017 0.1072702933020376 O
0.6674513853816658 0.3360683368449532 0.1021846874533088 O
0.6677092086209937 0.8365084774535502 0.1074426575775672 O
0.4849109157394051 0.2521197029940494 0.8434296662346733 O
0.477676702572283 0.7484395757219883 0.8538503186336635 O
0.9829029097945411 0.2481647159298146 0.845156174907743 O
0.9803747599610385 0.7487128505396176 0.8530036787122762 O
0.0783019201744749 0.4170777719936841 0.6064920184335117 O
0.0936385015315985 0.9204118918948849 0.5948403480323188 O
0.5792669992107191 0.4187011461214556 0.6051450897719763 O
0.5927122940397136 0.917802151489665 0.5987674261895772 O
0.2313309120520067 0.4735500747393369 0.3494282793473216 O
0.2399901674709916 0.9760837391377187 0.342292884106342 O
0.7316128325427357 0.4761615380238761 0.3492977741551526 O
0.7363054023655002 0.979029448094805 0.3454310799531802 O
0.4207288002048747 0.0948814765716381 0.091865452583214 O
0.4194060773154512 0.5942087461413901 0.0969234823167483 O
0.921021505414801 0.0907872089887702 0.0921531816877872 O
0.9212579551022232 0.5904909911365446 0.0950685783253705 O
