System                                  
   1.0000000000000000     
     5.1512938872749334    0.0643558703388382    2.6181390679860010
    -1.3788814136254679    4.9653096270984642    2.5735086847480932
     0.0042601651727039    0.0409265873730040    6.3528066617292804
  Li              Mn              O             
     5     4     8
Direct
     0.0496402315233663    0.5492822692860575    0.8996868980657747
     0.8899579023855815    0.6396650692286883    0.2372402301980063
     0.0457091427790475    0.0827447874397894    0.9072033932191570
     0.4462374671498461    0.4866890801775535    0.5581441672131982
     0.9811655569835593    0.4808209364888833    0.5690109819535338
     0.5045593895484725    0.5229044615830291    0.9878201971164204
     0.5208950282476436    0.0319330431120647    0.4682951491780334
     0.5000625888598581    0.0124981425677570    0.9960071260548172
     0.0067071077922966    0.0238924035936489    0.4834060022752119
     0.2745593323293153    0.2853238347363449    0.9742974141821660
     0.7622409779442956    0.2588005499197994    0.5010439797795498
     0.2473820825233832    0.7841538957692774    0.4838787663016452
     0.7672271477402334    0.7747678196998786    0.4899544303622334
     0.2416703245761974    0.2567791351613461    0.4958186684427208
     0.2712686763941325    0.7690198454870000   -0.0277219874328220
     0.7491964769602569    0.7625322979761212   -0.0134178715351517
     0.7415205662625275    0.2781924277727698    0.9893304546255148

  0.00000000E+00  0.00000000E+00  0.00000000E+00
  0.00000000E+00  0.00000000E+00  0.00000000E+00
  0.00000000E+00  0.00000000E+00  0.00000000E+00
  0.00000000E+00  0.00000000E+00  0.00000000E+00
  0.00000000E+00  0.00000000E+00  0.00000000E+00
  0.00000000E+00  0.00000000E+00  0.00000000E+00
  0.00000000E+00  0.00000000E+00  0.00000000E+00
  0.00000000E+00  0.00000000E+00  0.00000000E+00
  0.00000000E+00  0.00000000E+00  0.00000000E+00
  0.00000000E+00  0.00000000E+00  0.00000000E+00
  0.00000000E+00  0.00000000E+00  0.00000000E+00
  0.00000000E+00  0.00000000E+00  0.00000000E+00
  0.00000000E+00  0.00000000E+00  0.00000000E+00
  0.00000000E+00  0.00000000E+00  0.00000000E+00
  0.00000000E+00  0.00000000E+00  0.00000000E+00
  0.00000000E+00  0.00000000E+00  0.00000000E+00
  0.00000000E+00  0.00000000E+00  0.00000000E+00
