System                                  
   1.0000000000000000     
    10.3626541995670749    0.6680397148495248    5.8900744478487770
     3.5100475804119782   10.0732086450450389    5.5779958001142633
    -0.2770176937874708    0.4281704396772118   11.5097365705302366
  Li              Mn              O             
     7    32    64
Direct
     0.5686715750153882    0.5698102186526923    0.0547452790526920
     0.4252860189199856    0.4266775669201306    0.9471877244004199
     0.4345277172797826    0.9301122616652832    0.4459055622818606
     0.4338493538869020    0.9339930041515586    0.9415779470911985
     0.9322024342833134    0.4382589013579828    0.4411953344983364
     0.9348202533576168    0.4379941646610430    0.9336812694575174
     0.9380274600869849    0.9388005457287708    0.9370015686448692
     0.2420056126472846    0.2404736388713963    0.0072019617872875
     0.2401336016992139    0.2381644464733670    0.5089000218655413
     0.2517657342178310    0.7454760849593882    0.0050904166440297
     0.2505500076936906    0.7499344579207539    0.5029383396563211
     0.7457612328378626    0.2532017454077703    0.9983001450034473
     0.7503724834141307    0.2554385540299291    0.4964838871714591
     0.7582158880526247    0.7544398121827656    0.9940540149465034
     0.7594444188286444    0.7592147343345564    0.4952792052356760
     0.2459158296205426    0.9961202014700951    0.2562750287840506
     0.2431580945889761    0.9945556885131734    0.7577408415033221
     0.2452650840158765    0.4937676971321627    0.2600789411372721
     0.2462050803809068    0.4948807805656482    0.7519834146403905
     0.7543113130625773    0.0071895598399552    0.2453573138345438
     0.7523854762319385    0.0067152849554746    0.7419651816715949
     0.7560731999564725    0.5056206822392131    0.2430131314539017
     0.7534713026867561    0.5061802721768216    0.7418180138820483
     0.9995732273359613    0.2473118024444070    0.2505042046322272
     0.9956767733318066    0.2432607144831572    0.7537793057467033
     0.0070643453426537    0.7527962032298623    0.2487625775530229
     0.0060095490496569    0.7517165406066569    0.7453817465576824
     0.4946316910572521    0.2456959176659106    0.2568842459420399
     0.4947025025293853    0.2468705594498515    0.7489842679204542
     0.5036040834709523    0.7517082630247524    0.2501729944097041
     0.5046362433613448    0.7528578377250672    0.7464470188838038
     0.2424355990584199    0.2398751399192559    0.2604358330245423
     0.2396860773211366    0.2390405303244726    0.7623217569544570
     0.2522173594099799    0.7482505712025376    0.2536126159724429
     0.2497115995561688    0.7448782034034795    0.7538906545053461
     0.7516592306667410    0.2572196665709920    0.2421084029698579
     0.7456504264089832    0.2521631838080203    0.7472115870996586
     0.7583361002223388    0.7548614835119033    0.2420474597047361
     0.7576381968356226    0.7597796407664922    0.7377085952098541
     0.1299747781899925    0.1295327101200022    0.3559752040328752
     0.1275474819948539    0.1260164617528627    0.8587514950150341
     0.1396005725750089    0.6407029443662541    0.3507054175060821
     0.1371242283178221    0.6377745349848392    0.8496470816600894
     0.6452691596946522    0.1410289660035420    0.3442714735056738
     0.6397792163938955    0.1367095673161634    0.8437672937433830
     0.6490694292924707    0.6392908603127151    0.3422023636690165
     0.6436377315147568    0.6449190272925965    0.8461241058065826
     0.1241593742005609    0.3437870790721572    0.1391697686562717
     0.1181448888735122    0.3407325136353035    0.6428075122239002
     0.1299993854631135    0.8504945318901567    0.1346993226405541
     0.1262773867895564    0.8514293010482842    0.6379429941745045
     0.6405948982168402    0.3650875034435814    0.1173153946360729
     0.6413193409055606    0.3578117720782945    0.6221017521315494
     0.6487529034514329    0.8558141489984249    0.1204343271946311
     0.6474517457044867    0.8643928320225394    0.6181113955310332
     0.3445402662991656    0.1205981873547502    0.1447844376723197
     0.3415895725391936    0.1167905059246541    0.6479779663851370
     0.3625789253977737    0.6383371127432776    0.1286432624272901
     0.3547112000129166    0.6409194644777155    0.6314437225869602
     0.8515024701707100    0.1326761612264069    0.1328088868339031
     0.8513294884315448    0.1298378343118715    0.6333564548113226
     0.8583138778072507    0.6297580359599976    0.1320570611448682
     0.8625977941881597    0.6480410281774276    0.6226805252128633
     0.1288297421481153    0.1313730055832460    0.1344918563561773
     0.1260630575175827    0.1269169671334065    0.6380240064121859
     0.1370279434614142    0.6392077666943135    0.1296155713308637
     0.1345516810196183    0.6426835355599628    0.6247333952271725
     0.6387344035128977    0.1412385602353404    0.1241360397225838
     0.6429766289320163    0.1413122131768389    0.6158314817791869
     0.6479058028750071    0.6388725944400712    0.1142976499382464
     0.6470584553865173    0.6488595608058414    0.6139513420829357
     0.3537440922149469    0.3542794392386935    0.1578431402877729
     0.3486377360925841    0.3506042895859759    0.6607989708471327
     0.3647647086662947    0.8655088732089750    0.1501792962437013
     0.3590246234574957    0.8643384293538785    0.6527394738532735
     0.8673887173828412    0.3703407743677232    0.1413906072455753
     0.8636385222670941    0.3598260416663033    0.6472329046727983
     0.8695943102090892    0.8696180191912583    0.1432787169899479
     0.8670944383123261    0.8704781110105188    0.6460359600848762
     0.3525630246443230    0.1307756179082018    0.3846610013864076
     0.3525003781795636    0.1322973696056761    0.8840547612966424
     0.3626475330118946    0.6479944682106847    0.3747722967198688
     0.3605994846783623    0.6377638221910116    0.8799265224461644
     0.8709934430880654    0.1561022286437694    0.3601051490417640
     0.8683786030081830    0.1453182983097348    0.8687777711428342
     0.8807986998067253    0.6507893845774384    0.3620695035124340
     0.8792276142760687    0.6501945855340756    0.8611503486755449
     0.1333367458348669    0.3509607826559751    0.3811205434207796
     0.1326971533534473    0.3506779257749539    0.8820121128307569
     0.1499930150759489    0.8721787024848118    0.3631230076550538
     0.1443404381039519    0.8685960476641521    0.8704665830414090
     0.6544799938317324    0.3829376176133713    0.3518551938551222
     0.6382959524342435    0.3620485754130540    0.8707058012095528
     0.6529734515316610    0.8794361755204131    0.3554947329649206
     0.6507685263793804    0.8788600702237788    0.8600588692505370
     0.3519671657706018    0.3474055439510900    0.3890255851248142
     0.3548893962167682    0.3531529757246990    0.8834999472652448
     0.3593141716394674    0.8673386998984063    0.3798852262543418
     0.3613957821164625    0.8617835623338391    0.8785298217388965
     0.8692129457334474    0.3672140252066968    0.3682437880642480
     0.8644630070373673    0.3618335104558047    0.8713201372496163
     0.8713601461174887    0.8697550789875030    0.3645150278446406
     0.8697216206655113    0.8671914943457373    0.8692013828858858

  0.00000000E+00  0.00000000E+00  0.00000000E+00
  0.00000000E+00  0.00000000E+00  0.00000000E+00
  0.00000000E+00  0.00000000E+00  0.00000000E+00
  0.00000000E+00  0.00000000E+00  0.00000000E+00
  0.00000000E+00  0.00000000E+00  0.00000000E+00
  0.00000000E+00  0.00000000E+00  0.00000000E+00
  0.00000000E+00  0.00000000E+00  0.00000000E+00
  0.00000000E+00  0.00000000E+00  0.00000000E+00
  0.00000000E+00  0.00000000E+00  0.00000000E+00
  0.00000000E+00  0.00000000E+00  0.00000000E+00
  0.00000000E+00  0.00000000E+00  0.00000000E+00
  0.00000000E+00  0.00000000E+00  0.00000000E+00
  0.00000000E+00  0.00000000E+00  0.00000000E+00
  0.00000000E+00  0.00000000E+00  0.00000000E+00
  0.00000000E+00  0.00000000E+00  0.00000000E+00
  0.00000000E+00  0.00000000E+00  0.00000000E+00
  0.00000000E+00  0.00000000E+00  0.00000000E+00
  0.00000000E+00  0.00000000E+00  0.00000000E+00
  0.00000000E+00  0.00000000E+00  0.00000000E+00
  0.00000000E+00  0.00000000E+00  0.00000000E+00
  0.00000000E+00  0.00000000E+00  0.00000000E+00
  0.00000000E+00  0.00000000E+00  0.00000000E+00
  0.00000000E+00  0.00000000E+00  0.00000000E+00
  0.00000000E+00  0.00000000E+00  0.00000000E+00
  0.00000000E+00  0.00000000E+00  0.00000000E+00
  0.00000000E+00  0.00000000E+00  0.00000000E+00
  0.00000000E+00  0.00000000E+00  0.00000000E+00
  0.00000000E+00  0.00000000E+00  0.00000000E+00
  0.00000000E+00  0.00000000E+00  0.00000000E+00
  0.00000000E+00  0.00000000E+00  0.00000000E+00
  0.00000000E+00  0.00000000E+00  0.00000000E+00
  0.00000000E+00  0.00000000E+00  0.00000000E+00
  0.00000000E+00  0.00000000E+00  0.00000000E+00
  0.00000000E+00  0.00000000E+00  0.00000000E+00
  0.00000000E+00  0.00000000E+00  0.00000000E+00
  0.00000000E+00  0.00000000E+00  0.00000000E+00
  0.00000000E+00  0.00000000E+00  0.00000000E+00
  0.00000000E+00  0.00000000E+00  0.00000000E+00
  0.00000000E+00  0.00000000E+00  0.00000000E+00
  0.00000000E+00  0.00000000E+00  0.00000000E+00
  0.00000000E+00  0.00000000E+00  0.00000000E+00
  0.00000000E+00  0.00000000E+00  0.00000000E+00
  0.00000000E+00  0.00000000E+00  0.00000000E+00
  0.00000000E+00  0.00000000E+00  0.00000000E+00
  0.00000000E+00  0.00000000E+00  0.00000000E+00
  0.00000000E+00  0.00000000E+00  0.00000000E+00
  0.00000000E+00  0.00000000E+00  0.00000000E+00
  0.00000000E+00  0.00000000E+00  0.00000000E+00
  0.00000000E+00  0.00000000E+00  0.00000000E+00
  0.00000000E+00  0.00000000E+00  0.00000000E+00
  0.00000000E+00  0.00000000E+00  0.00000000E+00
  0.00000000E+00  0.00000000E+00  0.00000000E+00
  0.00000000E+00  0.00000000E+00  0.00000000E+00
  0.00000000E+00  0.00000000E+00  0.00000000E+00
  0.00000000E+00  0.00000000E+00  0.00000000E+00
  0.00000000E+00  0.00000000E+00  0.00000000E+00
  0.00000000E+00  0.00000000E+00  0.00000000E+00
  0.00000000E+00  0.00000000E+00  0.00000000E+00
  0.00000000E+00  0.00000000E+00  0.00000000E+00
  0.00000000E+00  0.00000000E+00  0.00000000E+00
  0.00000000E+00  0.00000000E+00  0.00000000E+00
  0.00000000E+00  0.00000000E+00  0.00000000E+00
  0.00000000E+00  0.00000000E+00  0.00000000E+00
  0.00000000E+00  0.00000000E+00  0.00000000E+00
  0.00000000E+00  0.00000000E+00  0.00000000E+00
  0.00000000E+00  0.00000000E+00  0.00000000E+00
  0.00000000E+00  0.00000000E+00  0.00000000E+00
  0.00000000E+00  0.00000000E+00  0.00000000E+00
  0.00000000E+00  0.00000000E+00  0.00000000E+00
  0.00000000E+00  0.00000000E+00  0.00000000E+00
  0.00000000E+00  0.00000000E+00  0.00000000E+00
  0.00000000E+00  0.00000000E+00  0.00000000E+00
  0.00000000E+00  0.00000000E+00  0.00000000E+00
  0.00000000E+00  0.00000000E+00  0.00000000E+00
  0.00000000E+00  0.00000000E+00  0.00000000E+00
  0.00000000E+00  0.00000000E+00  0.00000000E+00
  0.00000000E+00  0.00000000E+00  0.00000000E+00
  0.00000000E+00  0.00000000E+00  0.00000000E+00
  0.00000000E+00  0.00000000E+00  0.00000000E+00
  0.00000000E+00  0.00000000E+00  0.00000000E+00
  0.00000000E+00  0.00000000E+00  0.00000000E+00
  0.00000000E+00  0.00000000E+00  0.00000000E+00
  0.00000000E+00  0.00000000E+00  0.00000000E+00
  0.00000000E+00  0.00000000E+00  0.00000000E+00
  0.00000000E+00  0.00000000E+00  0.00000000E+00
  0.00000000E+00  0.00000000E+00  0.00000000E+00
  0.00000000E+00  0.00000000E+00  0.00000000E+00
  0.00000000E+00  0.00000000E+00  0.00000000E+00
  0.00000000E+00  0.00000000E+00  0.00000000E+00
  0.00000000E+00  0.00000000E+00  0.00000000E+00
  0.00000000E+00  0.00000000E+00  0.00000000E+00
  0.00000000E+00  0.00000000E+00  0.00000000E+00
  0.00000000E+00  0.00000000E+00  0.00000000E+00
  0.00000000E+00  0.00000000E+00  0.00000000E+00
  0.00000000E+00  0.00000000E+00  0.00000000E+00
  0.00000000E+00  0.00000000E+00  0.00000000E+00
  0.00000000E+00  0.00000000E+00  0.00000000E+00
  0.00000000E+00  0.00000000E+00  0.00000000E+00
  0.00000000E+00  0.00000000E+00  0.00000000E+00
  0.00000000E+00  0.00000000E+00  0.00000000E+00
  0.00000000E+00  0.00000000E+00  0.00000000E+00
  0.00000000E+00  0.00000000E+00  0.00000000E+00
  0.00000000E+00  0.00000000E+00  0.00000000E+00
