V8O20                                   
   1.00000000000000     
    14.2423477172999995    0.0000000000000000    0.0000000000000000
     0.0000000000000000    4.4391756058000000    0.0000000000000000
     0.0000000000000000    0.0000000000000000   23.0956039428999986
   V    O    Li
    32    80     1
Direct
 -0.0001726114634545  0.0993130527429635  0.0744549887264417
 -0.0001152892861565  0.1016250907928306  0.5744844996277058
  0.5001726114634547  0.0993130527429635  0.0744549887264417
  0.5001152892861563  0.1016250907928306  0.5744844996277058
  0.2500000000000000  0.1037271469685224  0.0740466213044050
  0.2500000000000000  0.1026633231376542  0.5747591815638543
  0.7500000000000000  0.0990022033193031  0.0748084997352002
  0.7500000000000000  0.0995729975769247  0.5740044104174643
  0.1246816289887216  0.8800391749404597  0.1752303745392142
  0.1249178040611438  0.8754918461951825  0.6756632889466351
  0.6253437450421225  0.8709988138904917  0.1759013017550284
  0.6251073401246098  0.8752172553392863  0.6756383423598735
  0.3753184040112774  0.8800391749404597  0.1752303745392142
  0.3750822129388540  0.8754918461951825  0.6756632889466351
  0.8746563209578758  0.8709988138904917  0.1759013017550284
  0.8748927268753922  0.8752172553392863  0.6756383423598735
  0.1246816289887216  0.8800391749404597  0.3247696254607861
  0.1249178040611438  0.8754918461951825  0.8243367110533649
  0.6253437450421225  0.8709988138904917  0.3240986982449720
  0.6251073401246098  0.8752172553392863  0.8243616576401265
  0.3753184040112774  0.8800391749404597  0.3247696254607861
  0.3750822129388540  0.8754918461951825  0.8243367110533649
  0.8746563209578758  0.8709988138904917  0.3240986982449720
  0.8748927268753922  0.8752172553392863  0.8243616576401265
 -0.0001726114634545  0.0993130527429635  0.4255450412735604
 -0.0001152892861565  0.1016250907928306  0.9255154593722944
  0.5001726114634547  0.0993130527429635  0.4255450412735604
  0.5001152892861563  0.1016250907928306  0.9255154593722944
  0.2500000000000000  0.1037271469685224  0.4259533686955942
  0.2500000000000000  0.1026633231376542  0.9252408594361455
  0.7500000000000000  0.0990022033193031  0.4251914902647991
  0.7500000000000000  0.0995729975769247  0.9259956305825355
  0.1255956748185287  0.9910857411082995  0.0913408092841379
  0.1249878832793776  0.9938285420653996  0.5903877558397762
  0.6244450520803136  0.9919341929529103  0.0911208178273275
  0.6249333605735767  0.9919861475064363  0.5901662357711209
  0.3744043001814731  0.9910857411082995  0.0913408092841379
  0.3750121077206249  0.9938285420653996  0.5903877558397762
  0.8755550149196883  0.9919341929529103  0.0911208178273275
  0.8750666394264233  0.9919861475064363  0.5901662357711209
  0.0008765137906901  0.9797178311368422  0.1608016674269019
 -0.0000797010606546  0.9832380093457946  0.6593332326383161
  0.4991234862093095  0.9797178311368422  0.1608016674269019
  0.5000797010606547  0.9832380093457946  0.6593332326383161
  0.2500000000000000  0.0030756803028417  0.1606753237812429
  0.2500000000000000  0.9832549998411471  0.6594444986949688
  0.7500000000000000  0.9778772354929570  0.1598251769586107
  0.7500000000000000  0.9826851707638223  0.6591019175467530
  0.0008765137906901  0.9797178311368422  0.3391983225730973
 -0.0000797010606546  0.9832380093457946  0.8406667253616804
  0.4991234862093095  0.9797178311368422  0.3391983225730973
  0.5000797010606547  0.9832380093457946  0.8406667253616804
  0.2500000000000000  0.0030756803028417  0.3393246762187570
  0.2500000000000000  0.9832549998411471  0.8405555423050310
  0.7500000000000000  0.9778772354929570  0.3401748230413891
  0.7500000000000000  0.9826851707638223  0.8408981234532469
  0.1255956748185287  0.9910857411082995  0.4086592007158629
  0.1249878832793776  0.9938285420653996  0.9096122851602236
  0.6244450520803136  0.9919341929529103  0.4088791921726733
  0.6249333605735767  0.9919861475064363  0.9098338052288789
  0.3744043001814731  0.9910857411082995  0.4086592007158629
  0.3750121077206249  0.9938285420653996  0.9096122851602236
  0.8755550149196883  0.9919341929529103  0.4088791921726733
  0.8750666394264233  0.9919861475064363  0.9098338052288789
  0.0004921901298038  0.4622706632012146  0.4266866997689689
 -0.0004164576370181  0.4642850683280058  0.9272039986095589
  0.4995078098701959  0.4622706632012146  0.4266866997689689
  0.5004164576370185  0.4642850683280058  0.9272039986095589
  0.2500000000000000  0.4666962116686126  0.4271653998570930
  0.2500000000000000  0.4653379417731593  0.9269863683976709
  0.7500000000000000  0.4617810106942675  0.4268519150520883
  0.7500000000000000  0.4622065596225998  0.9277961940040472
  0.1303683092850735  0.5166603910204459  0.3188988754201007
  0.1249070966476188  0.5128138061264268  0.8225994362859018
  0.6249204547173176  0.5082931507826460  0.3217877056771173
  0.6250603563259224  0.5125220884224185  0.8225834072817902
  0.3696316327149284  0.5166603910204459  0.3188988754201007
  0.3750928533523843  0.5128138061264268  0.8225994362859018
  0.8750794782826804  0.5082931507826460  0.3217877056771173
  0.8749395766740756  0.5125220884224185  0.8225834072817902
  0.1303683092850735  0.5166603910204459  0.1811011245798990
  0.1249070966476188  0.5128138061264268  0.6774004817140985
  0.6249204547173176  0.5082931507826460  0.1782122943228831
  0.6250603563259224  0.5125220884224185  0.6774165107182101
  0.3696316327149284  0.5166603910204459  0.1811011245798990
  0.3750928533523843  0.5128138061264268  0.6774004817140985
  0.8750794782826804  0.5082931507826460  0.1782122943228831
  0.8749395766740756  0.5125220884224185  0.6774165107182101
  0.1332176234481346  0.0020454108509973  0.2500000000000000
  0.1249268407712778  0.9839208330718893  0.7500000000000000
  0.6250267045411260  0.9827081868894441  0.2500000000000000
  0.6250928023168246  0.9838348721289469  0.7500000000000000
  0.3667824105518683  0.0020454108509973  0.2500000000000000
  0.3750731762287270  0.9839208330718893  0.7500000000000000
  0.8749732954588740  0.9827081868894441  0.2500000000000000
  0.8749071976831754  0.9838348721289469  0.7500000000000000
  0.0005783777987281  0.9941824337436449  0.0003450770335028
  0.0005783777987281  0.9941824337436449  0.4996549499665030
  0.4994216222012717  0.9941824337436449  0.0003450770335028
  0.4994216222012717  0.9941824337436449  0.4996549499665030
  0.2500000000000000  0.9956382976411414  0.0000884439505916
  0.2500000000000000  0.9956382976411414  0.4999115530494047
  0.7500000000000000  0.9917670555710584  0.0005753172207079
  0.7500000000000000  0.9917670555710584  0.4994246797792881
  0.0004921901298038  0.4622706632012146  0.0733133412310312
 -0.0004164576370181  0.4642850683280058  0.5727959193904414
  0.4995078098701959  0.4622706632012146  0.0733133412310312
  0.5004164576370185  0.4642850683280058  0.5727959193904414
  0.2500000000000000  0.4666962116686126  0.0728346161429081
  0.2500000000000000  0.4653379417731593  0.5730136316023291
  0.7500000000000000  0.4617810106942675  0.0731481009479131
  0.7500000000000000  0.4622065596225998  0.5722038059959528
  0.2500000000000000  0.2926149778026566  0.2500000000000000
