System
1.0
9.897317950528732 -0.0029271268046785 -0.0007080970859342
0.0041209076868966 12.699359464741258 -0.0001603373987241
0.0006672815599464 0.000126383522056 9.369809233586876
Li Fe P O 
11 16 16 64 
direct
0.2334491682036605 0.1257887258952395 0.1660317095821723 Li
0.2338797800604704 0.6205422904840308 0.1744525907971877 Li
0.7329976301788712 0.125739410956088 0.1659598841262165 Li
0.4873980376675977 0.873981289183717 0.3246435703288564 Li
0.9864986674064842 0.8734152358774686 0.3258208721564804 Li
0.006188782909181 0.62340266322117 0.6781807658202693 Li
0.5061415453995516 0.6224456723078963 0.6784033232331083 Li
0.2701443116543862 0.3744818008167286 0.8392696025536047 Li
0.264189157829756 0.8770683630493576 0.8279619038882796 Li
0.7702468555062981 0.3738992810586983 0.8372512394762816 Li
0.7643020170732882 0.8766198802105706 0.8280572613107875 Li
-7.58342386483e-05 0.0043226785364131 0.9906615463465724 Fe
-0.0013687854045546 0.4958374010088393 0.0103118669463816 Fe
0.4998125512836732 0.0042425373113768 0.990734644385046 Fe
0.4988744415107723 0.4959249560103859 0.0105244840522135 Fe
-0.0001523283401094 0.2487736066242887 0.9987023631837896 Fe
0.0003033683620202 0.7500668567868131 0.0003975824407302 Fe
0.4996060933450474 0.2488555213035838 0.9989337472464092 Fe
0.5004131300815333 0.7501104020637231 0.0004705381870952 Fe
0.2494402562043788 0.002778964958279 0.5008165301767745 Fe
0.2394631950491854 0.5043466696270523 0.4920895503229546 Fe
0.7500185265807964 0.002001399197908 0.5022501028383195 Fe
0.7404765620219448 0.5035652055086871 0.4920782328969383 Fe
0.267165085452035 0.2616462950223466 0.5086274689164522 Fe
0.2459899312870978 0.7475953731611635 0.498083778980151 Fe
0.7665881826990479 0.2609566345927486 0.5078382588835492 Fe
0.7448520523124564 0.7467519194928653 0.4977617794671314 Fe
0.2593213673599304 0.1246816811161379 0.8153987014256853 P
0.2627239388670559 0.6268059115706313 0.8241979867495923 P
0.7592708262597884 0.1244831587149866 0.8158773997053862 P
0.7628226993646336 0.6263115572625513 0.8238232355014778 P
0.0211376706545805 0.3789699278419844 0.674170326319113 P
0.014373359588132 0.8702289652415349 0.6727530108566244 P
0.521294830968582 0.3786929835367207 0.6743455562640809 P
0.5140830203741332 0.8695735715066448 0.6731086193993416 P
0.4861603122550378 0.1180387877880843 0.3312866020278222 P
0.4802013863540956 0.6311015421939966 0.3227919422899981 P
0.9858360499652526 0.1178804172044495 0.330899598489096 P
0.9801547357129146 0.6306985028663904 0.3227035195922094 P
0.2402256569376347 0.3697906165591194 0.180869082468442 P
0.2359717432042253 0.8791536733848019 0.1776332609060446 P
0.7404405128987065 0.3697887435671777 0.1805171113510244 P
0.7361086339299756 0.8789947408065368 0.1781749778607256 P
0.1114970692783072 0.125006514275563 0.8700232541547245 O
0.1103452723160308 0.6261218911367197 0.8676186678300304 O
0.6115002519801929 0.1251178751088872 0.8707400636058504 O
0.6105414802396225 0.6257369770941607 0.8676682269979547 O
0.0435977295493573 0.3745776506232177 0.8397838735952395 O
0.0393688961399278 0.875513423712735 0.8379771630764854 O
0.5435313755302726 0.3746403315481731 0.8399546284305047 O
0.5391724002406878 0.8751743373159111 0.8383874436699015 O
0.2730602815339282 0.1249326924510823 0.6432616467442588 O
0.2880345846272492 0.6269594558303473 0.6579027849595639 O
0.7730085272065215 0.124403271260263 0.6437652825595495 O
0.7879573009522387 0.6265905201145638 0.657504114980973 O
0.3663539669213672 0.3679188658513787 0.6357263395389365 O
0.3603818318999369 0.8802389992105717 0.6309173590384907 O
0.8662486357028023 0.3678674698393644 0.635269975798178 O
0.8605237076053729 0.8808798892956753 0.6308506936158444 O
0.100810929601205 0.2883003475650027 0.605868856911259 O
0.0711386414564302 0.764769114938282 0.6182584266194444 O
0.6008641869695879 0.2877228673326225 0.6065426593556419 O
0.571013303561119 0.7639803917531558 0.6192334579959333 O
0.0746018433425264 0.4855283827971592 0.6200578370875544 O
0.0936395282412428 0.9619221555347289 0.6052272227952525 O
0.5750126648627094 0.4849668947357263 0.6195455982319398 O
0.5935264944899268 0.96113416312037 0.6054629778044781 O
0.4181928425446782 0.0157036118512663 0.3893736006059023 O
0.4075803715981364 0.5369339491622332 0.3867863573806489 O
0.917789597793207 0.0157554691215308 0.3894201952215485 O
0.9086640994804788 0.5359504267266848 0.3865974292841197 O
0.1681035016474685 0.2696172050786103 0.124986162922606 O
0.1678580399122821 0.7772372755013442 0.1247404393349815 O
0.6682340620909218 0.2697164195572483 0.124497668457965 O
0.6683374374991757 0.7769947597810223 0.1249879040724243 O
0.1413704313003127 0.114799735595625 0.3678014557619257 O
0.1341904745197429 0.6297511550054282 0.3624558878840463 O
0.6416024623680041 0.1153201241916033 0.3686767585946714 O
0.6341828555385526 0.629170893420261 0.3626092696786267 O
0.2326652121997505 0.3668052547283778 0.350154743192473 O
0.2081583245203167 0.8830841033811867 0.3464691772040106 O
0.7325411642076278 0.3665231090001517 0.3498656885984862 O
0.7084459506479712 0.8826580720406099 0.3470488951198456 O
0.4577720203151894 0.122190902818732 0.1670018869162051 O
0.4586344540136353 0.6274506954840675 0.15568487576775 O
0.9572752430580482 0.1220099063476808 0.1666921898392067 O
0.9584161105725122 0.6271761137953471 0.1556137895389005 O
0.3861587821799153 0.3701601197464444 0.1188468908837996 O
0.3887381978465169 0.8791056839974949 0.1377023414725756 O
0.8864429570924495 0.3700777022989272 0.1188524459621479 O
0.8888064032860137 0.8792906719513389 0.1381201717173933 O
0.3314800257689536 0.2245121089084493 0.869714284453144 O
0.3291234736844258 0.7290989111162862 0.8817745662659736 O
0.8317815618094389 0.2243006017484361 0.8696203084364297 O
0.8294732587350869 0.7285828263703785 0.8813109663361874 O
0.1688076047349049 0.4721666001846186 0.1317496501319044 O
0.1686700691379449 0.9785116412610566 0.115054316614505 O
0.6691583106749687 0.4722808427626073 0.1315985774977522 O
0.6680034135857367 0.978227906223683 0.1161842983589364 O
0.4180625427483989 0.2128568115635278 0.4013296525094847 O
0.4170215640504452 0.7361086753230888 0.3756495902504717 O
0.9183117330218089 0.2129210596364102 0.4010600040894636 O
0.9160109950960086 0.7352825041352026 0.3757946870630673 O
0.3296972890797311 0.0230383029543566 0.868127731405733 O
0.3321866850050397 0.5265724735908799 0.8829270897083811 O
0.8292258033706374 0.022770311575861 0.8690204264053831 O
0.832259904384527 0.5259892192962993 0.8821701138191695 O
