System
1.0
10.17489 -0.0 -5.34195
-2.80459 9.78073 -5.34195
0.04954 0.06574 12.45547
Mg Mn O 
16 32 64 
direct
0.18750003090465703 0.31249967661553857 0.37500057706272893 Mg
0.187500030904657 0.3124996766155385 0.8750005770627289 Mg
0.187500030904657 0.8124996766155385 0.3750005770627289 Mg
0.18750003090465703 0.8124996766155385 0.8750005770627289 Mg
0.6875000309046571 0.3124996766155385 0.3750005770627289 Mg
0.6875000309046571 0.3124996766155385 0.8750005770627289 Mg
0.687500030904657 0.8124996766155385 0.37500057706272893 Mg
0.6875000309046571 0.8124996766155386 0.8750005770627289 Mg
0.31249982200731424 0.18749980599616406 0.12500034224426543 Mg
0.3124998220073142 0.18749980599616403 0.6250003422442654 Mg
0.31249982200731424 0.687499805996164 0.12500034224426546 Mg
0.31249982200731424 0.687499805996164 0.6250003422442654 Mg
0.8124998220073142 0.18749980599616406 0.12500034224426546 Mg
0.8124998220073142 0.18749980599616406 0.6250003422442654 Mg
0.8124998220073143 0.687499805996164 0.12500034224426546 Mg
0.8124998220073143 0.687499805996164 0.6250003422442654 Mg
-1.3413761991221165e-09 -1.3413484412153316e-09 0.2500001995644499 Mn
-1.3413761994066784e-09 -1.3413484417925651e-09 0.7500001995644499 Mn
-1.3413761797205518e-09 0.4999999986586515 0.2500001995644499 Mn
-1.3413761640887778e-09 0.4999999986586515 0.7500001995644499 Mn
0.4999999986586238 -1.3413484412606255e-09 0.2500001995644499 Mn
0.4999999986586239 -1.3413484419406052e-09 0.75000019956445 Mn
0.4999999986586238 0.4999999986586516 0.2500001995644499 Mn
0.4999999986586238 0.4999999986586515 0.75000019956445 Mn
1.7413739994426167e-07 0.24999974328432276 1.6529853722746005e-07 Mn
1.741373999461348e-07 0.24999974328432276 0.5000001652985372 Mn
1.7413739994489584e-07 0.7499997432843226 1.6529853721846414e-07 Mn
1.741373999571666e-07 0.7499997432843227 0.5000001652985372 Mn
0.5000001741373999 0.24999974328432273 1.6529853721846414e-07 Mn
0.5000001741373998 0.24999974328432273 0.5000001652985373 Mn
0.5000001741373999 0.7499997432843227 1.65298537128538e-07 Mn
0.5000001741373999 0.7499997432843227 0.5000001652985372 Mn
0.24999975231858562 -1.9784714503194027e-09 0.25000029435495996 Mn
0.2499997523185857 -1.9784714505606603e-09 0.7500002943549599 Mn
0.2499997523185857 0.4999999980215285 0.25000029435495996 Mn
0.24999975231858568 0.49999999802152856 0.7500002943549599 Mn
0.7499997523185856 -1.9784714501749613e-09 0.25000029435495996 Mn
0.7499997523185856 -1.9784714511423812e-09 0.7500002943549599 Mn
0.7499997523185857 0.49999999802152856 0.25000029435496 Mn
0.7499997523185856 0.4999999980215285 0.75000029435496 Mn
0.0 0.0 0.0 Mn
-3.0599785367420423e-19 -3.818240127453635e-19 0.5 Mn
1.3004771810256119e-17 0.4999999999999999 -2.6720780745521923e-17 Mn
7.725500592413649e-19 0.5 0.49999999999999994 Mn
0.5 9.023123490510437e-20 1.0347948701069902e-18 Mn
0.5 -2.9159277784025915e-19 0.5 Mn
0.5 0.49999999999999994 2.0695897402139803e-18 Mn
0.5 0.49999999999999994 0.5 Mn
0.37663886830564464 0.3887737927306501 0.25327804202655163 O
0.37663886830564464 0.38877379273065016 0.7532780420265516 O
0.37663886830564464 0.8887737927306502 0.25327804202655163 O
0.3766388683056446 0.88877379273065 0.7532780420265516 O
0.8766388683056446 0.38877379273065016 0.25327804202655163 O
0.8766388683056446 0.3887737927306501 0.7532780420265516 O
0.8766388683056446 0.8887737927306502 0.25327804202655163 O
0.8766388683056446 0.88877379273065 0.7532780420265516 O
0.38549695769687387 0.12336089968254887 0.49672318425933093 O
0.3854969576968739 0.12336089968254889 0.9967231842593309 O
0.3854969576968739 0.6233608996825488 0.49672318425933093 O
0.38549695769687387 0.6233608996825488 0.9967231842593308 O
0.8854969576968738 0.12336089968254889 0.49672318425933093 O
0.8854969576968738 0.12336089968254889 0.9967231842593308 O
0.8854969576968738 0.6233608996825488 0.49672318425933093 O
0.8854969576968738 0.6233608996825487 0.9967231842593308 O
0.1112257793913852 0.12336090038715884 0.49672308026685663 O
0.11122577939138518 0.12336090038715883 0.9967230802668566 O
0.1112257793913852 0.6233609003871587 0.4967230802668566 O
0.1112257793913852 0.6233609003871587 0.9967230802668565 O
0.6112257793913852 0.12336090038715883 0.49672308026685663 O
0.6112257793913852 0.12336090038715881 0.9967230802668566 O
0.6112257793913852 0.6233609003871587 0.49672308026685663 O
0.6112257793913853 0.6233609003871587 0.9967230802668565 O
0.12336098460632645 0.11122568988105257 0.24672287728044281 O
0.12336098460632644 0.11122568988105258 0.7467228772804428 O
0.12336098460632645 0.6112256898810524 0.2467228772804428 O
0.12336098460632647 0.6112256898810525 0.7467228772804427 O
0.6233609846063265 0.11122568988105258 0.24672287728044284 O
0.6233609846063265 0.11122568988105258 0.7467228772804428 O
0.6233609846063265 0.6112256898810524 0.24672287728044273 O
0.6233609846063265 0.6112256898810525 0.7467228772804427 O
0.123361175643804 0.3854968567917745 0.24672305862515442 O
0.123361175643804 0.3854968567917745 0.7467230586251544 O
0.12336117564380399 0.8854968567917744 0.24672305862515434 O
0.12336117564380401 0.8854968567917744 0.7467230586251544 O
0.6233611756438041 0.3854968567917745 0.24672305862515445 O
0.623361175643804 0.38549685679177453 0.7467230586251544 O
0.623361175643804 0.8854968567917744 0.24672305862515445 O
0.623361175643804 0.8854968567917745 0.7467230586251544 O
0.1145028952150974 0.3766385829291537 0.0032777350476632986 O
0.11450289521509742 0.37663858292915364 0.5032777350476633 O
0.11450289521509742 0.8766385829291535 0.0032777350476633073 O
0.11450289521509743 0.8766385829291536 0.5032777350476633 O
0.6145028952150974 0.3766385829291537 0.0032777350476633628 O
0.6145028952150975 0.3766385829291537 0.5032777350476633 O
0.6145028952150974 0.8766385829291535 0.003277735047663217 O
0.6145028952150974 0.8766385829291536 0.5032777350476633 O
0.37663867726816724 0.11450262581992804 0.25327786068184005 O
0.3766386772681673 0.11450262581992803 0.75327786068184 O
0.3766386772681673 0.614502625819928 0.25327786068184 O
0.3766386772681673 0.6145026258199281 0.7532778606818401 O
0.8766386772681672 0.11450262581992803 0.25327786068184005 O
0.8766386772681672 0.11450262581992803 0.7532778606818401 O
0.8766386772681672 0.6145026258199279 0.25327786068184 O
0.8766386772681672 0.614502625819928 0.75327786068184 O
0.38877407352058607 0.37663858222454366 0.0032778390401376157 O
0.38877407352058607 0.3766385822245437 0.5032778390401376 O
0.388774073520586 0.8766385822245436 0.0032778390401375255 O
0.38877407352058607 0.8766385822245437 0.5032778390401376 O
0.8887740735205861 0.37663858222454366 0.0032778390401376365 O
0.8887740735205861 0.37663858222454366 0.5032778390401376 O
0.888774073520586 0.8766385822245436 0.003277839040137633 O
0.888774073520586 0.8766385822245437 0.5032778390401376 O
