System                                  
   1.0000000000000000     
     4.8236489323488545   -0.0074510985474619    0.0009690734288514
    -0.0074390725733284    4.8236118597943731    0.0014312347085099
     0.0016411508460726    0.0032277384833839    9.1533999168628721
  Zn              Rh              F             
     2     2    12
Direct
     0.5006266146598546    0.5007106044463550    0.1733745609571630
     0.0003043332392255    0.0004290002528260    0.6753046505160059
     0.4998407971053945    0.4997995713757745    0.8303739022883658
     0.0000174376177071    0.0000191644372181    0.3305906180356727
     0.2177018088456284    0.7824729612332126    0.8299836577344021
     0.7825194046270481    0.2176261931261718    0.8299908579887687
     0.6995731285014277    0.6996667614231838    0.6767835941664274
     0.2998005413729973    0.2998900219320460    0.6762761240706928
     0.8001204097358293    0.1998398047971787    0.1777339864381809
     0.3136504768044012    0.3135039565032959    0.9906483112374512
     0.6862912965344948    0.6861196883339169    0.9913664662199093
     0.7174459119216280    0.7174390430002204    0.3306207376343681
     0.8138962915805250    0.1859144800431586    0.4904191937559251
     0.1858336365035875    0.8139238111959919    0.4905253245030884
     0.1997938637284911    0.8001203429036726    0.1777817297002320
     0.2825840472217598    0.2825245949957779    0.3301897541251845

  0.00000000E+00  0.00000000E+00  0.00000000E+00
  0.00000000E+00  0.00000000E+00  0.00000000E+00
  0.00000000E+00  0.00000000E+00  0.00000000E+00
  0.00000000E+00  0.00000000E+00  0.00000000E+00
  0.00000000E+00  0.00000000E+00  0.00000000E+00
  0.00000000E+00  0.00000000E+00  0.00000000E+00
  0.00000000E+00  0.00000000E+00  0.00000000E+00
  0.00000000E+00  0.00000000E+00  0.00000000E+00
  0.00000000E+00  0.00000000E+00  0.00000000E+00
  0.00000000E+00  0.00000000E+00  0.00000000E+00
  0.00000000E+00  0.00000000E+00  0.00000000E+00
  0.00000000E+00  0.00000000E+00  0.00000000E+00
  0.00000000E+00  0.00000000E+00  0.00000000E+00
  0.00000000E+00  0.00000000E+00  0.00000000E+00
  0.00000000E+00  0.00000000E+00  0.00000000E+00
  0.00000000E+00  0.00000000E+00  0.00000000E+00
