System
1.0
4.6890462749254604 -0.0 3e-16
7e-16 4.6890462749254604 3e-16
-0.0 -0.0 9.347756737047643
Zn Rh F 
2 2 12 
direct
0.49999999999999994 0.49999999999999994 0.1688575915803014 Zn
0.0 0.0 0.6688575915803013 Zn
0.49999999999999994 0.49999999999999994 0.8328737163963957 Rh
0.0 0.0 0.332873716396396 Rh
0.1987032107798998 0.8012967892201001 0.8354810123796875 F
0.8012967892201001 0.1987032107798998 0.8354810123796875 F
0.6932159192035178 0.6932159192035178 0.6678149151630398 F
0.3067840807964823 0.3067840807964823 0.6678149151630398 F
0.8067840807964821 0.1932159192035179 0.1678149151630399 F
0.30462738206004686 0.30462738206004686 0.9963292858118818 F
0.6953726179399529 0.6953726179399529 0.9963292858118818 F
0.6987032107798998 0.6987032107798998 0.33548101237968747 F
0.8046273820600471 0.1953726179399531 0.4963292858118819 F
0.1953726179399531 0.8046273820600471 0.4963292858118819 F
0.1932159192035179 0.8067840807964821 0.1678149151630399 F
0.3012967892201002 0.3012967892201002 0.33548101237968747 F
