System                                  
   1.0000000000000000     
     3.1002401944255187   -5.2793364390316739   -0.0422436505719753
     3.0537528980916209    5.2533538995659477   -0.0124085983595951
    -0.0450432636174398    0.0142247467120567    4.6728951183813523
  In              Mo              O             
     1     3     8
Direct
     0.6730197276043340    0.3360627822849120    0.7513741492405471
     0.1689055671281086    0.3292249219131705    0.2490503600328472
     0.6650811874547490    0.8328689020324095    0.2561018058982866
     0.1629234803842094    0.8297529958927505    0.2596463849908646
     1.0067886939456669    1.0174127323656537    0.4861617733783961
     0.3214808562527142    0.6498134942114195    0.0279312835015691
     0.4936332056910029    0.9926407130947904    0.4826760646825469
     0.0220555852779690    0.5004543260753831    0.4797183809894363
     0.4967689278098906    0.5059990244209441    0.4818734191883914
     0.8394914128730848    0.6775730499196053    0.0245756834301711
     0.3130217100334184    0.1680998874244516    0.0269279526373501
     0.8368029642023543    0.1600438076794478    0.0278449029869794

  0.00000000E+00  0.00000000E+00  0.00000000E+00
  0.00000000E+00  0.00000000E+00  0.00000000E+00
  0.00000000E+00  0.00000000E+00  0.00000000E+00
  0.00000000E+00  0.00000000E+00  0.00000000E+00
  0.00000000E+00  0.00000000E+00  0.00000000E+00
  0.00000000E+00  0.00000000E+00  0.00000000E+00
  0.00000000E+00  0.00000000E+00  0.00000000E+00
  0.00000000E+00  0.00000000E+00  0.00000000E+00
  0.00000000E+00  0.00000000E+00  0.00000000E+00
  0.00000000E+00  0.00000000E+00  0.00000000E+00
  0.00000000E+00  0.00000000E+00  0.00000000E+00
  0.00000000E+00  0.00000000E+00  0.00000000E+00
