System                                  
   1.0000000000000000     
    10.3626541995670749    0.6680397148495248    5.8900744478487770
     3.5100475804119782   10.0732086450450389    5.5779958001142633
    -0.2770176937874708    0.4281704396772118   11.5097365705302366
  Li              Mn              O             
     3    32    64
Direct
     0.4369348020928965    0.9367690755676273    0.4393426889987130
     0.9359436880036385    0.4346617956708468    0.9364735109519297
     0.9398663914911300    0.9365249461009080    0.9370540649235866
     0.2464064231563687    0.2439455194189490    0.0033862153880849
     0.2418720022395963    0.2460799924078549    0.5049333430119447
     0.2533527031431448    0.7449301256313205    0.0018463449483523
     0.2546857172355647    0.7520545006530284    0.4990409443819981
     0.7485163554783869    0.2499735276643638    0.0000062884714479
     0.7470245159776054    0.2509516683942620    0.5005274907937287
     0.7524934410925677    0.7520977773342824    0.9979539942960611
     0.7529785355362050    0.7572695089749121    0.4979187653668934
     0.2477990043682580    0.9991500786141586    0.2500388502125908
     0.2470290735990414    0.9986860416353234    0.7541119665581021
     0.2448332444018374    0.4956501096003493    0.2560134372180267
     0.2536211033054642    0.4971172668763430    0.7490009922655876
     0.7511142068651716    0.0067427225445363    0.2470326458713285
     0.7508576726006997    0.0015536485795955    0.7472719178056844
     0.7518458301272318    0.5016226302221052    0.2498680328313101
     0.7503966179427821    0.5014018711830984    0.7462981475808704
     0.9985795797574436    0.2479114793754395    0.2530547321091187
     0.9962491200186410    0.2453359506602982    0.7515787437754805
     0.0017323621472056    0.7515027149292293    0.2503571534202368
     0.0069173226436383    0.7517805051004258    0.7448291237246951
     0.4972099356388297    0.2528651848786939    0.2505492319904981
     0.4957904747398704    0.2438798018737620    0.7539931500492988
     0.5022920172236826    0.7516441696810520    0.2465388407543582
     0.5043435082149975    0.7528130112520026    0.7491550963818115
     0.2437167915371120    0.2468330641062169    0.2558372417519078
     0.2450374985358353    0.2430349061369479    0.7567860060658060
     0.2519693831132927    0.7467749031977223    0.2516529897472770
     0.2551392733024117    0.7503359116049237    0.7460181762202261
     0.7518810310669966    0.2539729698369035    0.2439050064618813
     0.7442831024935532    0.2472754083639777    0.7550057163057824
     0.7516783794203789    0.7526740210616405    0.2481938406755307
     0.7536028353958475    0.7560430930269219    0.7433634623060704
     0.1337462890243944    0.1315022449672420    0.3533036675062421
     0.1336655504793090    0.1286703359871605    0.8548685635070989
     0.1370168452981298    0.6358710667590882    0.3518931162460519
     0.1430524748938198    0.6411564252131838    0.8451566309115858
     0.6430939741297957    0.1395703860966123    0.3458054236309074
     0.6369598240285763    0.1299782829711316    0.8516518914595581
     0.6411671378463296    0.6385406709035971    0.3474790918568762
     0.6427453823290115    0.6436898827050503    0.8444342746402974
     0.1238243838257817    0.3460082468487488    0.1368558972839667
     0.1200402071279482    0.3444604882040555    0.6417221968120267
     0.1303695228549413    0.8466892276942090    0.1352985749560275
     0.1288788156493409    0.8529192521691956    0.6332304364467258
     0.6452260448644416    0.3569925279259632    0.1201894420390376
     0.6206425970369527    0.3466604788693616    0.6398431639403714
     0.6294187423402168    0.8512979699566233    0.1321044486039741
     0.6269784360178577    0.8570669596725704    0.6329257027340903
     0.3458389039754302    0.1239287761419842    0.1431655483684354
     0.3445624400791452    0.1223261289025142    0.6420082535968097
     0.3492359303564567    0.6205825550162422    0.1427348829808108
     0.3594960728630620    0.6459412540104286    0.6245908896345900
     0.8530636988482814    0.1262597190692002    0.1378244769732282
     0.8471337164995589    0.1273055791635767    0.6373996401279884
     0.8515148807488735    0.6293504878264536    0.1377541824007668
     0.8572881748075910    0.6491117193316219    0.6229527151705878
     0.1314731643883757    0.1337039465401365    0.1313065744395940
     0.1301530787718452    0.1318505502300023    0.6326508081900039
     0.1338814112037385    0.6386480338956635    0.1279076720391739
     0.1400089773287553    0.6439029419139772    0.6213256795045229
     0.6398274315971773    0.1387361446991393    0.1242068971287981
     0.6354770616925057    0.1361269007678458    0.6256241015266502
     0.6386226858518961    0.6413191099048565    0.1229366774034040
     0.6370845286359542    0.6483398814649018    0.6208756863366892
     0.3520859342340142    0.3619746898425570    0.1572641701469670
     0.3570904656549104    0.3536250442737442    0.6562963415778037
     0.3627196473453587    0.8631161576289160    0.1498511066632591
     0.3636854354389708    0.8691715522063090    0.6472574804186406
     0.8657521610813874    0.3692233313554499    0.1449454143210740
     0.8589428090008894    0.3559374647828404    0.6535215426270725
     0.8646782625221133    0.8682003183530809    0.1449176812710254
     0.8658041422305824    0.8680148771211180    0.6479809036767206
     0.3527136906933975    0.1385406300522861    0.3810919864515096
     0.3701997076512195    0.1431012734597429    0.8694656212217899
     0.3780052043784071    0.6517737247305604    0.3640400916655882
     0.3780997030469229    0.6513048344442431    0.8615829663410637
     0.8714441785538284    0.1531731206259680    0.3648612679934753
     0.8727761845185359    0.1419652136395878    0.8676157304738285
     0.8728984725774677    0.6560226427447642    0.3633526911070867
     0.8783903692609655    0.6490486724539548    0.8628428644112378
     0.1427287838549525    0.3715309013198720    0.3662229691678139
     0.1377377703701562    0.3532629377104964    0.8776527735602220
     0.1531483268129715    0.8713396489546300    0.3604302651046375
     0.1479612504676288    0.8704728791464575    0.8661266614540484
     0.6519903414975459    0.3780237340720090    0.3562342946260844
     0.6446412655120215    0.3555173018484508    0.8740429126511351
     0.6474182130654533    0.8795727976300093    0.3581989707419084
     0.6541441403077176    0.8742076511135127    0.8613830829187320
     0.3530433362930183    0.3575520681783485    0.3831134583525243
     0.3615431493328920    0.3521463891434491    0.8787467726201500
     0.3692087391244191    0.8659470183205443    0.3696689567214189
     0.3634708247063559    0.8604618603797887    0.8763706527236056
     0.8633316545052979    0.3624322513666706    0.3744017805288175
     0.8674892631890193    0.3595201221821791    0.8719440696805507
     0.8666590980442112    0.8670805334338357    0.3688178384613341
     0.8693125870517919    0.8638731310224006    0.8723493149066226

  0.00000000E+00  0.00000000E+00  0.00000000E+00
  0.00000000E+00  0.00000000E+00  0.00000000E+00
  0.00000000E+00  0.00000000E+00  0.00000000E+00
  0.00000000E+00  0.00000000E+00  0.00000000E+00
  0.00000000E+00  0.00000000E+00  0.00000000E+00
  0.00000000E+00  0.00000000E+00  0.00000000E+00
  0.00000000E+00  0.00000000E+00  0.00000000E+00
  0.00000000E+00  0.00000000E+00  0.00000000E+00
  0.00000000E+00  0.00000000E+00  0.00000000E+00
  0.00000000E+00  0.00000000E+00  0.00000000E+00
  0.00000000E+00  0.00000000E+00  0.00000000E+00
  0.00000000E+00  0.00000000E+00  0.00000000E+00
  0.00000000E+00  0.00000000E+00  0.00000000E+00
  0.00000000E+00  0.00000000E+00  0.00000000E+00
  0.00000000E+00  0.00000000E+00  0.00000000E+00
  0.00000000E+00  0.00000000E+00  0.00000000E+00
  0.00000000E+00  0.00000000E+00  0.00000000E+00
  0.00000000E+00  0.00000000E+00  0.00000000E+00
  0.00000000E+00  0.00000000E+00  0.00000000E+00
  0.00000000E+00  0.00000000E+00  0.00000000E+00
  0.00000000E+00  0.00000000E+00  0.00000000E+00
  0.00000000E+00  0.00000000E+00  0.00000000E+00
  0.00000000E+00  0.00000000E+00  0.00000000E+00
  0.00000000E+00  0.00000000E+00  0.00000000E+00
  0.00000000E+00  0.00000000E+00  0.00000000E+00
  0.00000000E+00  0.00000000E+00  0.00000000E+00
  0.00000000E+00  0.00000000E+00  0.00000000E+00
  0.00000000E+00  0.00000000E+00  0.00000000E+00
  0.00000000E+00  0.00000000E+00  0.00000000E+00
  0.00000000E+00  0.00000000E+00  0.00000000E+00
  0.00000000E+00  0.00000000E+00  0.00000000E+00
  0.00000000E+00  0.00000000E+00  0.00000000E+00
  0.00000000E+00  0.00000000E+00  0.00000000E+00
  0.00000000E+00  0.00000000E+00  0.00000000E+00
  0.00000000E+00  0.00000000E+00  0.00000000E+00
  0.00000000E+00  0.00000000E+00  0.00000000E+00
  0.00000000E+00  0.00000000E+00  0.00000000E+00
  0.00000000E+00  0.00000000E+00  0.00000000E+00
  0.00000000E+00  0.00000000E+00  0.00000000E+00
  0.00000000E+00  0.00000000E+00  0.00000000E+00
  0.00000000E+00  0.00000000E+00  0.00000000E+00
  0.00000000E+00  0.00000000E+00  0.00000000E+00
  0.00000000E+00  0.00000000E+00  0.00000000E+00
  0.00000000E+00  0.00000000E+00  0.00000000E+00
  0.00000000E+00  0.00000000E+00  0.00000000E+00
  0.00000000E+00  0.00000000E+00  0.00000000E+00
  0.00000000E+00  0.00000000E+00  0.00000000E+00
  0.00000000E+00  0.00000000E+00  0.00000000E+00
  0.00000000E+00  0.00000000E+00  0.00000000E+00
  0.00000000E+00  0.00000000E+00  0.00000000E+00
  0.00000000E+00  0.00000000E+00  0.00000000E+00
  0.00000000E+00  0.00000000E+00  0.00000000E+00
  0.00000000E+00  0.00000000E+00  0.00000000E+00
  0.00000000E+00  0.00000000E+00  0.00000000E+00
  0.00000000E+00  0.00000000E+00  0.00000000E+00
  0.00000000E+00  0.00000000E+00  0.00000000E+00
  0.00000000E+00  0.00000000E+00  0.00000000E+00
  0.00000000E+00  0.00000000E+00  0.00000000E+00
  0.00000000E+00  0.00000000E+00  0.00000000E+00
  0.00000000E+00  0.00000000E+00  0.00000000E+00
  0.00000000E+00  0.00000000E+00  0.00000000E+00
  0.00000000E+00  0.00000000E+00  0.00000000E+00
  0.00000000E+00  0.00000000E+00  0.00000000E+00
  0.00000000E+00  0.00000000E+00  0.00000000E+00
  0.00000000E+00  0.00000000E+00  0.00000000E+00
  0.00000000E+00  0.00000000E+00  0.00000000E+00
  0.00000000E+00  0.00000000E+00  0.00000000E+00
  0.00000000E+00  0.00000000E+00  0.00000000E+00
  0.00000000E+00  0.00000000E+00  0.00000000E+00
  0.00000000E+00  0.00000000E+00  0.00000000E+00
  0.00000000E+00  0.00000000E+00  0.00000000E+00
  0.00000000E+00  0.00000000E+00  0.00000000E+00
  0.00000000E+00  0.00000000E+00  0.00000000E+00
  0.00000000E+00  0.00000000E+00  0.00000000E+00
  0.00000000E+00  0.00000000E+00  0.00000000E+00
  0.00000000E+00  0.00000000E+00  0.00000000E+00
  0.00000000E+00  0.00000000E+00  0.00000000E+00
  0.00000000E+00  0.00000000E+00  0.00000000E+00
  0.00000000E+00  0.00000000E+00  0.00000000E+00
  0.00000000E+00  0.00000000E+00  0.00000000E+00
  0.00000000E+00  0.00000000E+00  0.00000000E+00
  0.00000000E+00  0.00000000E+00  0.00000000E+00
  0.00000000E+00  0.00000000E+00  0.00000000E+00
  0.00000000E+00  0.00000000E+00  0.00000000E+00
  0.00000000E+00  0.00000000E+00  0.00000000E+00
  0.00000000E+00  0.00000000E+00  0.00000000E+00
  0.00000000E+00  0.00000000E+00  0.00000000E+00
  0.00000000E+00  0.00000000E+00  0.00000000E+00
  0.00000000E+00  0.00000000E+00  0.00000000E+00
  0.00000000E+00  0.00000000E+00  0.00000000E+00
  0.00000000E+00  0.00000000E+00  0.00000000E+00
  0.00000000E+00  0.00000000E+00  0.00000000E+00
  0.00000000E+00  0.00000000E+00  0.00000000E+00
  0.00000000E+00  0.00000000E+00  0.00000000E+00
  0.00000000E+00  0.00000000E+00  0.00000000E+00
  0.00000000E+00  0.00000000E+00  0.00000000E+00
  0.00000000E+00  0.00000000E+00  0.00000000E+00
  0.00000000E+00  0.00000000E+00  0.00000000E+00
  0.00000000E+00  0.00000000E+00  0.00000000E+00
