System                                  
   1.0000000000000000     
     5.4689199999999998    0.0226100000000000    8.3110300000000006
     2.5059700000000000    4.8610400000000000    8.3110300000000006
     0.0369400000000000    0.0226300000000000    9.9490300000000005
  Li              Co              O             
     7     8    16
Direct
     0.2499989061146715    0.2499977844667962    0.7500007409423227
     0.2499984262577039    0.7500006153710459    0.2499989157864035
     0.2500010882577692    0.7500006174859812    0.7499989387452702
     0.7500019220880560    0.2499973774871320    0.2499990820883094
     0.7500027745753356    0.2500000868910822    0.7499981317239672
     0.7500011333236968    0.7499981179479569    0.2500019694224593
     0.7500001976191996    0.7499986582738561    0.7499987224063031
     0.0009484896254913    0.0009458574349059    0.0009471130343775
     0.0009790122393799    0.0009784696759328    0.4996415656681299
     0.0009783328297660    0.4996430564096416    0.0009766766462064
     0.0003520112544604    0.4990218140431092    0.4990258337643455
     0.4996445634377935    0.0009774197060512    0.0009763208513258
     0.4990232689545283    0.0003503466236434    0.4990259432769091
     0.4990223198707244    0.4990215626247790    0.0003545033608228
     0.4990539325024650    0.4990510451007916    0.4990504992045862
     0.1301667270993885    0.1301655357593881    0.1301726316848794
     0.1280743548908827    0.1280727244306497    0.6376146389755013
     0.1280739901960324    0.6376045302357490    0.1280845223248868
     0.1268702588680101    0.6308413888886600    0.6308508508681007
     0.6376057334101427    0.1280731446559008    0.1280842682934533
     0.6308429829274841    0.1268694306498352    0.6308504308120704
     0.6308453977665992    0.6308425003852001    0.1268765800695721
     0.6295875138653222    0.6295862243720286    0.6295955086683057
     0.3698339387542516    0.3698344182508195    0.3698264082109273
     0.3719255486491232    0.3719259603685945    0.8623886852518721
     0.3719273006280442    0.8623973394320705    0.3719157918877666
     0.3731285457918971    0.8691554758440305    0.8691495637808866
     0.8623972079250050    0.3719272483249665    0.3719156269310653
     0.8691553970365573    0.3731288493729965    0.8691493238579718
     0.8691558764167790    0.8691557189999037    0.3731216750926535
     0.8704137047320096    0.8704128877024166    0.8704077080401662

  0.00000000E+00  0.00000000E+00  0.00000000E+00
  0.00000000E+00  0.00000000E+00  0.00000000E+00
  0.00000000E+00  0.00000000E+00  0.00000000E+00
  0.00000000E+00  0.00000000E+00  0.00000000E+00
  0.00000000E+00  0.00000000E+00  0.00000000E+00
  0.00000000E+00  0.00000000E+00  0.00000000E+00
  0.00000000E+00  0.00000000E+00  0.00000000E+00
  0.00000000E+00  0.00000000E+00  0.00000000E+00
  0.00000000E+00  0.00000000E+00  0.00000000E+00
  0.00000000E+00  0.00000000E+00  0.00000000E+00
  0.00000000E+00  0.00000000E+00  0.00000000E+00
  0.00000000E+00  0.00000000E+00  0.00000000E+00
  0.00000000E+00  0.00000000E+00  0.00000000E+00
  0.00000000E+00  0.00000000E+00  0.00000000E+00
  0.00000000E+00  0.00000000E+00  0.00000000E+00
  0.00000000E+00  0.00000000E+00  0.00000000E+00
  0.00000000E+00  0.00000000E+00  0.00000000E+00
  0.00000000E+00  0.00000000E+00  0.00000000E+00
  0.00000000E+00  0.00000000E+00  0.00000000E+00
  0.00000000E+00  0.00000000E+00  0.00000000E+00
  0.00000000E+00  0.00000000E+00  0.00000000E+00
  0.00000000E+00  0.00000000E+00  0.00000000E+00
  0.00000000E+00  0.00000000E+00  0.00000000E+00
  0.00000000E+00  0.00000000E+00  0.00000000E+00
  0.00000000E+00  0.00000000E+00  0.00000000E+00
  0.00000000E+00  0.00000000E+00  0.00000000E+00
  0.00000000E+00  0.00000000E+00  0.00000000E+00
  0.00000000E+00  0.00000000E+00  0.00000000E+00
  0.00000000E+00  0.00000000E+00  0.00000000E+00
  0.00000000E+00  0.00000000E+00  0.00000000E+00
  0.00000000E+00  0.00000000E+00  0.00000000E+00
