V8O20                                   
   1.00000000000000     
    14.2423477172999995    0.0000000000000000    0.0000000000000000
     0.0000000000000000    4.4391756058000000    0.0000000000000000
     0.0000000000000000    0.0000000000000000   23.0956039428999986
   V    O    Li
    32    80     1
Direct
  0.0001781980014712  0.0992362793430388  0.0744299262066974
  0.0001123711444322  0.1015893855785848  0.5745143026417026
  0.4998218019985288  0.0992362793430388  0.0744299262066974
  0.4998876288555678  0.1015893855785848  0.5745143026417026
  0.2500000000000000  0.0989977316068646  0.0748349666825234
  0.2500000000000000  0.0996832680786497  0.5739934170142647
  0.7500000000000000  0.1037190284146092  0.0740465035436131
  0.7500000000000000  0.1026427095451652  0.5747646016123582
  0.1253333703792805  0.8710259669912972  0.1759066653259254
  0.1251218098865152  0.8752434321930522  0.6756464528576416
  0.6246801135467450  0.8800772012970128  0.1752265105870734
  0.6249072389700743  0.8754650683542451  0.6756669675016553
  0.3746666626207187  0.8710259669912972  0.1759066653259254
  0.3748782071134826  0.8752434321930522  0.6756464528576416
  0.8753199524532533  0.8800772012970128  0.1752265105870734
  0.8750928280299277  0.8754650683542451  0.6756669675016553
  0.1253333703792805  0.8710259669912972  0.3240933346740746
  0.1251218098865152  0.8752434321930522  0.8243535471423584
  0.6246801135467450  0.8800772012970128  0.3247734894129266
  0.6249072389700743  0.8754650683542451  0.8243330324983447
  0.3746666626207187  0.8710259669912972  0.3240933346740746
  0.3748782071134826  0.8752434321930522  0.8243535471423584
  0.8753199524532533  0.8800772012970128  0.3247734894129266
  0.8750928280299277  0.8754650683542451  0.8243330324983447
  0.0001781980014712  0.0992362793430388  0.4255701037933051
  0.0001123711444322  0.1015893855785848  0.9254856563582976
  0.4998218019985288  0.0992362793430388  0.4255701037933051
  0.4998876288555678  0.1015893855785848  0.9254856563582976
  0.2500000000000000  0.0989977316068646  0.4251650233174757
  0.2500000000000000  0.0996832680786497  0.9260066239857352
  0.7500000000000000  0.1037190284146092  0.4259534864563861
  0.7500000000000000  0.1026427095451652  0.9252354393876416
  0.1244325444595233  0.9918944468837338  0.0911270578042007
  0.1249483160341214  0.9920788545429957  0.5901734741501272
  0.6255910207413677  0.9910198064706535  0.0913162787902522
  0.6249811207948284  0.9937631132214619  0.5903891844611735
  0.3755674305404781  0.9918944468837338  0.0911270578042007
  0.3750516749658814  0.9920788545429957  0.5901734741501272
  0.8744090462586342  0.9910198064706535  0.0913162787902522
  0.8750188792051716  0.9937631132214619  0.5903891844611735
  0.9991134822690810  0.9797466571504572  0.1608009174101710
  0.0000846148305200  0.9832268321001507  0.6593520135342459
  0.5008865177309190  0.9797466571504572  0.1608009174101710
  0.4999153851694800  0.9832268321001507  0.6593520135342459
  0.2500000000000000  0.9779154651625532  0.1598241064515094
  0.2500000000000000  0.9826793738494075  0.6590937470799645
  0.7500000000000000  0.0031576021198774  0.1606863846758912
  0.7500000000000000  0.9832526624802540  0.6594453917132554
  0.9991134822690810  0.9797466571504572  0.3391990725898211
  0.0000846148305200  0.9832268321001507  0.8406479444657506
  0.5008865177309190  0.9797466571504572  0.3391990725898211
  0.4999153851694800  0.9832268321001507  0.8406479444657506
  0.2500000000000000  0.9779154651625532  0.3401758935484906
  0.2500000000000000  0.9826793738494075  0.8409062939200354
  0.7500000000000000  0.0031576021198774  0.3393136153241088
  0.7500000000000000  0.9832526624802540  0.8405546492867444
  0.1244325444595233  0.9918944468837338  0.4088729521958001
  0.1249483160341214  0.9920788545429957  0.9098265668498726
  0.6255910207413677  0.9910198064706535  0.4086837312097487
  0.6249811207948284  0.9937631132214619  0.9096108565388263
  0.3755674305404781  0.9918944468837338  0.4088729521958001
  0.3750516749658814  0.9920788545429957  0.9098265668498726
  0.8744090462586342  0.9910198064706535  0.4086837312097487
  0.8750188792051716  0.9937631132214619  0.9096108565388263
  0.9995165195748541  0.4622146720411564  0.4266925715520031
  0.0003807271603264  0.4642258354978992  0.9271839060251352
  0.5004834804251459  0.4622146720411564  0.4266925715520031
  0.4996192728396736  0.4642258354978992  0.9271839060251352
  0.2500000000000000  0.4617771068232202  0.4268363151242909
  0.2500000000000000  0.4623245626562422  0.9278039494468260
  0.7500000000000000  0.4666984611328289  0.4271560552160238
  0.7500000000000000  0.4652946224283596  0.9269959642405752
  0.1249484059506045  0.5083048756958632  0.3217777475135861
  0.1250656786720086  0.5125382422254816  0.8225910996156927
  0.6303506542529718  0.5166886448303316  0.3188956501633839
  0.6249156879133722  0.5127706744603771  0.8225847244379878
  0.3750515360493978  0.5083048756958632  0.3217777475135861
  0.3749342713279944  0.5125382422254816  0.8225910996156927
  0.8696492787470262  0.5166886448303316  0.3188956501633839
  0.8750842450866259  0.5127706744603771  0.8225847244379878
  0.1249484059506045  0.5083048756958632  0.1782222524864139
  0.1250656786720086  0.5125382422254816  0.6774088183843077
  0.6303506542529718  0.5166886448303316  0.1811043498366161
  0.6249156879133722  0.5127706744603771  0.6774151935620125
  0.3750515360493978  0.5083048756958632  0.1782222524864139
  0.3749342713279944  0.5125382422254816  0.6774088183843077
  0.8696492787470262  0.5166886448303316  0.1811043498366161
  0.8750842450866259  0.5127706744603771  0.6774151935620125
  0.1250337499727436  0.9827706751428664  0.2500000000000000
  0.1250902535484570  0.9838499416023723  0.7500000000000000
  0.6332190943729472  0.0020501208507469  0.2500000000000000
  0.6249256917410762  0.9838879916979053  0.7500000000000000
  0.3749662840272592  0.9827706751428664  0.2500000000000000
  0.3749097634515479  0.9838499416023723  0.7500000000000000
  0.8667809056270528  0.0020501208507469  0.2500000000000000
  0.8750743082589238  0.9838879916979053  0.7500000000000000
  0.9994741464052339  0.9942083921179830  0.0003215765445361
  0.9994741464052339  0.9942083921179830  0.4996784504554697
  0.5005258535947661  0.9942083921179830  0.0003215765445361
  0.5005258535947661  0.9942083921179830  0.4996784504554697
  0.2500000000000000  0.9918502382217156  0.0005875860764135
  0.2500000000000000  0.9918502382217156  0.4994124109235827
  0.7500000000000000  0.9955863524102426  0.0000868156384186
  0.7500000000000000  0.9955863524102426  0.4999131813615776
  0.9995165195748541  0.4622146720411564  0.0733074694479967
  0.0003807271603264  0.4642258354978992  0.5728160119748651
  0.5004834804251459  0.4622146720411564  0.0733074694479967
  0.4996192728396736  0.4642258354978992  0.5728160119748651
  0.2500000000000000  0.4617771068232202  0.0731637008757104
  0.2500000000000000  0.4623245626562422  0.5721960505531740
  0.7500000000000000  0.4666984611328289  0.0728439607839775
  0.7500000000000000  0.4652946224283596  0.5730040357594248
  0.5000000000000000  0.2926690985692062  0.2500000000000000
 
