System                                  
   1.0000000000000000     
     9.9607399999999995    0.0001100000000000   -0.0000600000000000
     0.0000400000000000   12.9470899999999993    0.0015800000000000
     0.0000400000000000   -0.0010200000000000    9.4285399999999999
  Li              Mn              P               O             
     4    16    16    64
Direct
     0.4693068037663091    0.8795932404114988    0.3244676437415540
     0.9698218135867454    0.8794163908031316    0.3251356262640904
     0.2807781661431902    0.3689100229276398    0.8253675438986715
     0.7814823402343951    0.3691851166594525    0.8254356305053605
     0.5188772777942597    0.2474364613994078    0.9994503566521652
     0.4836104305836085    0.7507014377568161    0.0078407539611052
     0.0191426038637877    0.2470860837001368    0.9990358947398846
     0.9834785373266011    0.7507120115510408    0.0080684910739611
     0.2396592328324792    0.2402597888674403    0.4798573623005407
     0.2430555907547140    0.7477117130891627    0.5152710356670606
     0.7393626957857847    0.2400660039512635    0.4799570469948287
     0.7430097156157425    0.7477655985883593    0.5150894864434098
     0.0087999866617551    0.0074745244757974    0.9803187143148391
     0.0076483007378261    0.5002257295318552    0.0177490366295058
     0.5091978384034254    0.0077929478305062    0.9804866892350101
     0.5078216590219126    0.4999497498707671    0.0169569142760938
     0.2672438651267208    0.4984774058028452    0.5089567856343343
     0.2318455312075978    0.0018060955705926    0.4993400834223186
     0.7668936122096864    0.4983497742476022    0.5091801430630960
     0.7320388873646183    0.0015492513070006    0.4997712512929119
     0.2441039556296951    0.3876067190357920    0.1855795076191303
     0.2176843264638913    0.8757842369461565    0.1652902891274979
     0.7441175672598961    0.3870274916635909    0.1859340620824352
     0.7177956535518406    0.8760871996840478    0.1659193763644618
     0.0326595884526593    0.3733626808314860    0.6653479303554994
     0.0062910831857758    0.8607115249703736    0.6838032944261890
     0.5324781811995917    0.3731312865249499    0.6661620060392995
     0.5063126437950701    0.8606415735604803    0.6837633090022031
     0.2734104737746788    0.1323754150430086    0.8164680930945938
     0.2695598833136229    0.6051240224479345    0.8353375322006865
     0.7734771035782673    0.1324654093843066    0.8165732259692797
     0.7696445867269900    0.6051012657271909    0.8355940809931283
     0.4757702639356708    0.1163947679499479    0.3160577727352244
     0.4813077791578106    0.6430117880564773    0.3339215558428019
     0.9757627664877152    0.1162322798807359    0.3161627605591351
     0.9810438210836503    0.6428946519718394    0.3340537355831735
     0.0904128054758453    0.2753874956769071    0.5935820880049822
     0.0863751371983466    0.7638416742724380    0.6354635421144154
     0.5904407338765613    0.2751403593299031    0.5946976646316277
     0.5864771044867441    0.7638293836033744    0.6352122532057840
     0.1785035916676747    0.2894912357527581    0.1313674253165073
     0.1479839721275371    0.7799938154343941    0.0992286058444159
     0.6791461898018886    0.2885216657610121    0.1321769479350582
     0.6479111808603168    0.7804814450066221    0.0996865864264768
     0.3390739220356567    0.2322610704274747    0.8722409997196177
     0.3364527245922768    0.7033937241556554    0.8936769549592514
     0.8394797595477476    0.2323111353581701    0.8722071114789572
     0.8360128440093647    0.7034400712860287    0.8942450768225219
     0.3958176230340218    0.2114971601973250    0.3721329471655658
     0.4025774688312946    0.7400194174907805    0.3874921729413052
     0.8954669879946441    0.2111654808816391    0.3723085394051567
     0.9026308481517618    0.7399653519040441    0.3878354829528186
     0.3529683902099067    0.0369178212228071    0.8714637212642233
     0.3487160052190501    0.5084290186821098    0.8901652842373898
     0.8525022969287246    0.0367910381263870    0.8718722485405718
     0.8488250189125918    0.5084622967909060    0.8906797697343819
     0.4103009402027100    0.0162317733278644    0.3708857569220347
     0.4138400410001232    0.5452279550087216    0.3933369244467197
     0.9107624819955480    0.0160036259204381    0.3714812640229190
     0.9129791936780005    0.5452052760237908    0.3929271278472730
     0.3932766912848613    0.3962118963138639    0.1279244464054461
     0.3713143074509901    0.8696214924344247    0.1347766857003339
     0.8932939034173543    0.3959441985165393    0.1283813429300089
     0.8713827965671386    0.8697446591006628    0.1353436839759877
     0.2773836870465390    0.1295420991914190    0.6488082543947398
     0.2839173563557588    0.6088804014258891    0.6676364064311967
     0.7774654256645449    0.1294936553057189    0.6490074357512904
     0.7840651180228572    0.6088940943715314    0.6680176981488414
     0.1263280037573013    0.1243545368158438    0.8754156963726211
     0.1202750908193280    0.5978896616877668    0.8872428116726561
     0.6262187155152702    0.1247753168215639    0.8756340714622480
     0.6203568268807796    0.5978887789826394    0.8876053586928834
     0.1229271572048879    0.1246339231943141    0.3746757851452628
     0.1302467888506628    0.6492939977193878    0.3853491885173519
     0.6228785823213513    0.1243604272261068    0.3750210978727593
     0.6305511834297155    0.6494887143175595    0.3853623843268077
     0.0664961354156729    0.3696014462060194    0.8281843670869815
     0.0103626579497198    0.8634884174899463    0.8544825911377110
     0.5658416134214296    0.3693963080334376    0.8292716767084692
     0.5107963540169576    0.8633984437691695    0.8543997716392429
     0.2394963532489744    0.3848554670629781    0.3565273526802260
     0.1846764897831578    0.8787489087357778    0.3285054062942008
     0.7390096061470466    0.3844696450172513    0.3569300663572599
     0.6849506465706937    0.8786046996578180    0.3291987612483884
     0.1636035246056463    0.4845454999343273    0.1370860779784331
     0.1587363431494935    0.9737662598057464    0.0949406479586536
     0.6633909602645499    0.4837051819155316    0.1370015115373151
     0.6586278051816993    0.9741587727789184    0.0960015217111428
     0.4715458570411020    0.1202591228719127    0.1485365242037191
     0.4670580895123518    0.6388810417431456    0.1659285440551989
     0.9713804692333771    0.1198651015625364    0.1485374742488659
     0.9667211996483314    0.6388458949915613    0.1659826508263473
     0.3788132711125485    0.3798940609975232    0.6364427566356691
     0.3573213222828827    0.8530897718269810    0.6249492717750168
     0.8788526185195299    0.3799557366311448    0.6360967010910027
     0.8572952287945330    0.8532276816923811    0.6249123946392661
     0.1021532492596842    0.4691734913251383    0.5993447285359546
     0.0717344575213632    0.9591521886126667    0.6293359649832390
     0.6024472353290661    0.4689356059334513    0.6007876810685487
     0.5713523306789131    0.9592147398912595    0.6291613030901708

  0.00000000E+00  0.00000000E+00  0.00000000E+00
  0.00000000E+00  0.00000000E+00  0.00000000E+00
  0.00000000E+00  0.00000000E+00  0.00000000E+00
  0.00000000E+00  0.00000000E+00  0.00000000E+00
  0.00000000E+00  0.00000000E+00  0.00000000E+00
  0.00000000E+00  0.00000000E+00  0.00000000E+00
  0.00000000E+00  0.00000000E+00  0.00000000E+00
  0.00000000E+00  0.00000000E+00  0.00000000E+00
  0.00000000E+00  0.00000000E+00  0.00000000E+00
  0.00000000E+00  0.00000000E+00  0.00000000E+00
  0.00000000E+00  0.00000000E+00  0.00000000E+00
  0.00000000E+00  0.00000000E+00  0.00000000E+00
  0.00000000E+00  0.00000000E+00  0.00000000E+00
  0.00000000E+00  0.00000000E+00  0.00000000E+00
  0.00000000E+00  0.00000000E+00  0.00000000E+00
  0.00000000E+00  0.00000000E+00  0.00000000E+00
  0.00000000E+00  0.00000000E+00  0.00000000E+00
  0.00000000E+00  0.00000000E+00  0.00000000E+00
  0.00000000E+00  0.00000000E+00  0.00000000E+00
  0.00000000E+00  0.00000000E+00  0.00000000E+00
  0.00000000E+00  0.00000000E+00  0.00000000E+00
  0.00000000E+00  0.00000000E+00  0.00000000E+00
  0.00000000E+00  0.00000000E+00  0.00000000E+00
  0.00000000E+00  0.00000000E+00  0.00000000E+00
  0.00000000E+00  0.00000000E+00  0.00000000E+00
  0.00000000E+00  0.00000000E+00  0.00000000E+00
  0.00000000E+00  0.00000000E+00  0.00000000E+00
  0.00000000E+00  0.00000000E+00  0.00000000E+00
  0.00000000E+00  0.00000000E+00  0.00000000E+00
  0.00000000E+00  0.00000000E+00  0.00000000E+00
  0.00000000E+00  0.00000000E+00  0.00000000E+00
  0.00000000E+00  0.00000000E+00  0.00000000E+00
  0.00000000E+00  0.00000000E+00  0.00000000E+00
  0.00000000E+00  0.00000000E+00  0.00000000E+00
  0.00000000E+00  0.00000000E+00  0.00000000E+00
  0.00000000E+00  0.00000000E+00  0.00000000E+00
  0.00000000E+00  0.00000000E+00  0.00000000E+00
  0.00000000E+00  0.00000000E+00  0.00000000E+00
  0.00000000E+00  0.00000000E+00  0.00000000E+00
  0.00000000E+00  0.00000000E+00  0.00000000E+00
  0.00000000E+00  0.00000000E+00  0.00000000E+00
  0.00000000E+00  0.00000000E+00  0.00000000E+00
  0.00000000E+00  0.00000000E+00  0.00000000E+00
  0.00000000E+00  0.00000000E+00  0.00000000E+00
  0.00000000E+00  0.00000000E+00  0.00000000E+00
  0.00000000E+00  0.00000000E+00  0.00000000E+00
  0.00000000E+00  0.00000000E+00  0.00000000E+00
  0.00000000E+00  0.00000000E+00  0.00000000E+00
  0.00000000E+00  0.00000000E+00  0.00000000E+00
  0.00000000E+00  0.00000000E+00  0.00000000E+00
  0.00000000E+00  0.00000000E+00  0.00000000E+00
  0.00000000E+00  0.00000000E+00  0.00000000E+00
  0.00000000E+00  0.00000000E+00  0.00000000E+00
  0.00000000E+00  0.00000000E+00  0.00000000E+00
  0.00000000E+00  0.00000000E+00  0.00000000E+00
  0.00000000E+00  0.00000000E+00  0.00000000E+00
  0.00000000E+00  0.00000000E+00  0.00000000E+00
  0.00000000E+00  0.00000000E+00  0.00000000E+00
  0.00000000E+00  0.00000000E+00  0.00000000E+00
  0.00000000E+00  0.00000000E+00  0.00000000E+00
  0.00000000E+00  0.00000000E+00  0.00000000E+00
  0.00000000E+00  0.00000000E+00  0.00000000E+00
  0.00000000E+00  0.00000000E+00  0.00000000E+00
  0.00000000E+00  0.00000000E+00  0.00000000E+00
  0.00000000E+00  0.00000000E+00  0.00000000E+00
  0.00000000E+00  0.00000000E+00  0.00000000E+00
  0.00000000E+00  0.00000000E+00  0.00000000E+00
  0.00000000E+00  0.00000000E+00  0.00000000E+00
  0.00000000E+00  0.00000000E+00  0.00000000E+00
  0.00000000E+00  0.00000000E+00  0.00000000E+00
  0.00000000E+00  0.00000000E+00  0.00000000E+00
  0.00000000E+00  0.00000000E+00  0.00000000E+00
  0.00000000E+00  0.00000000E+00  0.00000000E+00
  0.00000000E+00  0.00000000E+00  0.00000000E+00
  0.00000000E+00  0.00000000E+00  0.00000000E+00
  0.00000000E+00  0.00000000E+00  0.00000000E+00
  0.00000000E+00  0.00000000E+00  0.00000000E+00
  0.00000000E+00  0.00000000E+00  0.00000000E+00
  0.00000000E+00  0.00000000E+00  0.00000000E+00
  0.00000000E+00  0.00000000E+00  0.00000000E+00
  0.00000000E+00  0.00000000E+00  0.00000000E+00
  0.00000000E+00  0.00000000E+00  0.00000000E+00
  0.00000000E+00  0.00000000E+00  0.00000000E+00
  0.00000000E+00  0.00000000E+00  0.00000000E+00
  0.00000000E+00  0.00000000E+00  0.00000000E+00
  0.00000000E+00  0.00000000E+00  0.00000000E+00
  0.00000000E+00  0.00000000E+00  0.00000000E+00
  0.00000000E+00  0.00000000E+00  0.00000000E+00
  0.00000000E+00  0.00000000E+00  0.00000000E+00
  0.00000000E+00  0.00000000E+00  0.00000000E+00
  0.00000000E+00  0.00000000E+00  0.00000000E+00
  0.00000000E+00  0.00000000E+00  0.00000000E+00
  0.00000000E+00  0.00000000E+00  0.00000000E+00
  0.00000000E+00  0.00000000E+00  0.00000000E+00
  0.00000000E+00  0.00000000E+00  0.00000000E+00
  0.00000000E+00  0.00000000E+00  0.00000000E+00
  0.00000000E+00  0.00000000E+00  0.00000000E+00
  0.00000000E+00  0.00000000E+00  0.00000000E+00
  0.00000000E+00  0.00000000E+00  0.00000000E+00
  0.00000000E+00  0.00000000E+00  0.00000000E+00
