Li Mn Co Ni O                           
   1.0000000000000000     
    11.4036119080534100   -0.1184340363776869   -0.1730321180897029
    -5.7118662044382926   10.0197384873517947    0.0055186315585882
     0.0747569456323191    0.0524950657940442    8.7804879627067116
  Li              Mn              Co              Ni              O             
     8    12     8    12    64
Direct
     0.1729721812322495    0.3375888949128276    0.8880548942744261
     0.1729710178233838    0.8376503051057841    0.8883300091291658
     0.6732801540551222    0.3353352015914626    0.8870140372322656
     0.6732502178756361    0.8353978458520410    0.8870963888975985
     0.3323772493753991    0.1613542136116639    0.3921174908201141
     0.3323304264328222    0.6612789824375985    0.3923356840532873
     0.8322167010112584    0.1699134823180807    0.3911859583095221
     0.8321521797168323    0.6698599751300581    0.3915158365295014
     0.0842216503849400    0.4128289850101929    0.2101980114320491
     0.0842164624543656    0.9128302386083390    0.2103634940357247
     0.5839839308393006    0.4214598606195026    0.2118938056982289
     0.5839890073172351    0.9214745515456794    0.2119484823898447
     0.0851302261285027    0.1631513092691114    0.2131564043567067
     0.0851070506619205    0.6631373148603128    0.2133725947435406
     0.5849937707933286    0.1724731684438566    0.2092791360502594
     0.5849679863624712    0.6724636593251655    0.2093807879248857
     0.1651048223896380    0.0812969895740568    0.7104338927226941
     0.1650718226950939    0.5812899339874644    0.7105774427944894
     0.6652025159324111    0.0837932801568988    0.7098898738887386
     0.6651780915326567    0.5837946782104561    0.7101170972389955
     0.1672418221299116    0.3271061061981421    0.4900517782317106
     0.1671992542373053    0.8270850570855511    0.4902142154917482
     0.6669804847572145    0.3403098813609112    0.4900239019954168
     0.6669655181117342    0.8402764290352002    0.4900578134678153
     0.3408700394338495    0.1738045916906491    0.9863488873222648
     0.3408372543387604    0.6738419506630601    0.9864691963485178
     0.8406306143394783    0.1658477953775057    0.9865069598779386
     0.8406042220131592    0.6658544744869683    0.9866910660836190
     0.4186857671133711    0.0868871593845134    0.7103225568986786
     0.4186482427436271    0.5868683022439407    0.7104875064871358
     0.9139327333655437    0.0826672690246554    0.7120721057986716
     0.9139030007029464    0.5826572128922956    0.7122884623330504
     0.3331101588820750    0.4147243824902963    0.2098212692486048
     0.3331004457759641    0.9147239032116862    0.2099994890884047
     0.8329318725538869    0.4184506328272478    0.2096802910393595
     0.8329324840318901    0.9184512982758509    0.2096925236002133
     0.4140309287113235    0.3315090077853253    0.7122189445261021
     0.4140156417775074    0.8315116135179527    0.7123220917055734
     0.9188551960478495    0.3321524386977352    0.7104597951810754
     0.9188469319260422    0.8321613744021982    0.7106201873887512
     0.1717260962704525    0.0833003836637404    0.1041274522863053
     0.1717247769342104    0.5833806987504718    0.1041842656146540
     0.6724924718841471    0.0892278416468074    0.1041366233546052
     0.6724833963490459    0.5892531755300114    0.1042018776811320
     0.4201193226291751    0.3389795456871567    0.0932708994840966
     0.4200873040261681    0.8390137442378406    0.0934010087799232
     0.9200416885308206    0.3245540861854260    0.0951868442296808
     0.9200316629301694    0.8245573766987889    0.0953671225339112
     0.3354779036770638    0.1700852972834926    0.6058478710334061
     0.3354464547643660    0.6700696338018078    0.6060209622950431
     0.8354308312119566    0.1658901737595538    0.6054318129795697
     0.8354155756233840    0.6659019961168279    0.6056942492153757
     0.2630666565715036    0.0254907624915024    0.8444982514843554
     0.2630333722627394    0.5254883054692009    0.8446263567995467
     0.7611898878526563    0.0203723675063874    0.8398587983346256
     0.7611687626257831    0.5203587006233052    0.8400740448398035
     0.2615014125166058    0.2402817613927090    0.8405256612306894
     0.2614929690824030    0.7403274766128669    0.8406651404708744
     0.7634488890017382    0.2371331455025129    0.8444191721438904
     0.7634309669626864    0.7371535535991236    0.8446393077667229
     0.3205948144883797    0.4042759125327931    0.6014245004166426
     0.3206071372677570    0.9042545607456841    0.6014840009849415
     0.8206657537403598    0.4167703054464078    0.6012384360796936
     0.8206744224102595    0.9167085794961792    0.6012022187482865
     0.2325957958652120    0.2482196392932675    0.3514930936756529
     0.2325672154938473    0.7481931118461297    0.3516920344411940
     0.7387485825062658    0.2653326471590475    0.3466730731592960
     0.7387018008227304    0.7652773295515051    0.3467746258203096
     0.0202608611387515    0.2575097799650445    0.3419295383437111
     0.0202161924479528    0.7574992608465874    0.3421303940587771
     0.5199457846460200    0.2630991367619525    0.3410771772988372
     0.5199181607287565    0.7630864986208680    0.3411690007006865
     0.0766684305799204    0.1586526995949716    0.5970330703447483
     0.0766297478594091    0.6586725227906727    0.5972560346223608
     0.5855636070090388    0.1696520265575785    0.5992446562070619
     0.5855545538303775    0.6696647035443366    0.5994794851129264
     0.9964429373454672    0.9992223199005555    0.8143762959035076
     0.9963802107148171    0.4991216974850325    0.8144610992264908
     0.4964603515848832    0.9975231045058801    0.8139594308919280
     0.4963807977063391    0.4974252064718865    0.8140486425073191
     0.9992379998864039    0.9952649324044633    0.3154355429068501
     0.9992358312913786    0.4951673401089035    0.3154561715769348
     0.4987369557065821    0.0039792176436632    0.3143938308034950
     0.4986719096876336    0.5039020973612029    0.3143564410182543
     0.1684994169226853    0.3298135601283932    0.1028436213774992
     0.1684747440019513    0.8297916881504351    0.1030800571835918
     0.6675556391028971    0.3384619919906950    0.1018265484084601
     0.6675494843867025    0.8384490588456519    0.1019091252926342
     0.4839635016135475    0.2541669838158174    0.8458018860229773
     0.4839323395496909    0.7541898566701434    0.8459508097155611
     0.9835739727312989    0.2294587360192456    0.8459136279818548
     0.9835488072724380    0.7294486268587020    0.8461504845065051
     0.0855068403653577    0.4165248284321482    0.5995559533011499
     0.0854651017660322    0.9164532456454842    0.5996003476765612
     0.5765516888026117    0.4185168682954248    0.5966201718900400
     0.5764882780882865    0.9184350123227865    0.5966038243050313
     0.2391810743508807    0.4733930874774119    0.3476953778304346
     0.2391842930813056    0.9733994968959374    0.3478411780030646
     0.7322858528165198    0.4837597535264709    0.3511666166464443
     0.7322996600230328    0.9837432070869371    0.3511826483904737
     0.4188562206585690    0.0979807907414964    0.0968939413128398
     0.4188687068854419    0.5980127274209638    0.0969377962763721
     0.9188814409484197    0.0840280520274892    0.0973313072883510
     0.9188817698002705    0.5840397379928914    0.0975044283551940

  0.00000000E+00  0.00000000E+00  0.00000000E+00
  0.00000000E+00  0.00000000E+00  0.00000000E+00
  0.00000000E+00  0.00000000E+00  0.00000000E+00
  0.00000000E+00  0.00000000E+00  0.00000000E+00
  0.00000000E+00  0.00000000E+00  0.00000000E+00
  0.00000000E+00  0.00000000E+00  0.00000000E+00
  0.00000000E+00  0.00000000E+00  0.00000000E+00
  0.00000000E+00  0.00000000E+00  0.00000000E+00
  0.00000000E+00  0.00000000E+00  0.00000000E+00
  0.00000000E+00  0.00000000E+00  0.00000000E+00
  0.00000000E+00  0.00000000E+00  0.00000000E+00
  0.00000000E+00  0.00000000E+00  0.00000000E+00
  0.00000000E+00  0.00000000E+00  0.00000000E+00
  0.00000000E+00  0.00000000E+00  0.00000000E+00
  0.00000000E+00  0.00000000E+00  0.00000000E+00
  0.00000000E+00  0.00000000E+00  0.00000000E+00
  0.00000000E+00  0.00000000E+00  0.00000000E+00
  0.00000000E+00  0.00000000E+00  0.00000000E+00
  0.00000000E+00  0.00000000E+00  0.00000000E+00
  0.00000000E+00  0.00000000E+00  0.00000000E+00
  0.00000000E+00  0.00000000E+00  0.00000000E+00
  0.00000000E+00  0.00000000E+00  0.00000000E+00
  0.00000000E+00  0.00000000E+00  0.00000000E+00
  0.00000000E+00  0.00000000E+00  0.00000000E+00
  0.00000000E+00  0.00000000E+00  0.00000000E+00
  0.00000000E+00  0.00000000E+00  0.00000000E+00
  0.00000000E+00  0.00000000E+00  0.00000000E+00
  0.00000000E+00  0.00000000E+00  0.00000000E+00
  0.00000000E+00  0.00000000E+00  0.00000000E+00
  0.00000000E+00  0.00000000E+00  0.00000000E+00
  0.00000000E+00  0.00000000E+00  0.00000000E+00
  0.00000000E+00  0.00000000E+00  0.00000000E+00
  0.00000000E+00  0.00000000E+00  0.00000000E+00
  0.00000000E+00  0.00000000E+00  0.00000000E+00
  0.00000000E+00  0.00000000E+00  0.00000000E+00
  0.00000000E+00  0.00000000E+00  0.00000000E+00
  0.00000000E+00  0.00000000E+00  0.00000000E+00
  0.00000000E+00  0.00000000E+00  0.00000000E+00
  0.00000000E+00  0.00000000E+00  0.00000000E+00
  0.00000000E+00  0.00000000E+00  0.00000000E+00
  0.00000000E+00  0.00000000E+00  0.00000000E+00
  0.00000000E+00  0.00000000E+00  0.00000000E+00
  0.00000000E+00  0.00000000E+00  0.00000000E+00
  0.00000000E+00  0.00000000E+00  0.00000000E+00
  0.00000000E+00  0.00000000E+00  0.00000000E+00
  0.00000000E+00  0.00000000E+00  0.00000000E+00
  0.00000000E+00  0.00000000E+00  0.00000000E+00
  0.00000000E+00  0.00000000E+00  0.00000000E+00
  0.00000000E+00  0.00000000E+00  0.00000000E+00
  0.00000000E+00  0.00000000E+00  0.00000000E+00
  0.00000000E+00  0.00000000E+00  0.00000000E+00
  0.00000000E+00  0.00000000E+00  0.00000000E+00
  0.00000000E+00  0.00000000E+00  0.00000000E+00
  0.00000000E+00  0.00000000E+00  0.00000000E+00
  0.00000000E+00  0.00000000E+00  0.00000000E+00
  0.00000000E+00  0.00000000E+00  0.00000000E+00
  0.00000000E+00  0.00000000E+00  0.00000000E+00
  0.00000000E+00  0.00000000E+00  0.00000000E+00
  0.00000000E+00  0.00000000E+00  0.00000000E+00
  0.00000000E+00  0.00000000E+00  0.00000000E+00
  0.00000000E+00  0.00000000E+00  0.00000000E+00
  0.00000000E+00  0.00000000E+00  0.00000000E+00
  0.00000000E+00  0.00000000E+00  0.00000000E+00
  0.00000000E+00  0.00000000E+00  0.00000000E+00
  0.00000000E+00  0.00000000E+00  0.00000000E+00
  0.00000000E+00  0.00000000E+00  0.00000000E+00
  0.00000000E+00  0.00000000E+00  0.00000000E+00
  0.00000000E+00  0.00000000E+00  0.00000000E+00
  0.00000000E+00  0.00000000E+00  0.00000000E+00
  0.00000000E+00  0.00000000E+00  0.00000000E+00
  0.00000000E+00  0.00000000E+00  0.00000000E+00
  0.00000000E+00  0.00000000E+00  0.00000000E+00
  0.00000000E+00  0.00000000E+00  0.00000000E+00
  0.00000000E+00  0.00000000E+00  0.00000000E+00
  0.00000000E+00  0.00000000E+00  0.00000000E+00
  0.00000000E+00  0.00000000E+00  0.00000000E+00
  0.00000000E+00  0.00000000E+00  0.00000000E+00
  0.00000000E+00  0.00000000E+00  0.00000000E+00
  0.00000000E+00  0.00000000E+00  0.00000000E+00
  0.00000000E+00  0.00000000E+00  0.00000000E+00
  0.00000000E+00  0.00000000E+00  0.00000000E+00
  0.00000000E+00  0.00000000E+00  0.00000000E+00
  0.00000000E+00  0.00000000E+00  0.00000000E+00
  0.00000000E+00  0.00000000E+00  0.00000000E+00
  0.00000000E+00  0.00000000E+00  0.00000000E+00
  0.00000000E+00  0.00000000E+00  0.00000000E+00
  0.00000000E+00  0.00000000E+00  0.00000000E+00
  0.00000000E+00  0.00000000E+00  0.00000000E+00
  0.00000000E+00  0.00000000E+00  0.00000000E+00
  0.00000000E+00  0.00000000E+00  0.00000000E+00
  0.00000000E+00  0.00000000E+00  0.00000000E+00
  0.00000000E+00  0.00000000E+00  0.00000000E+00
  0.00000000E+00  0.00000000E+00  0.00000000E+00
  0.00000000E+00  0.00000000E+00  0.00000000E+00
  0.00000000E+00  0.00000000E+00  0.00000000E+00
  0.00000000E+00  0.00000000E+00  0.00000000E+00
  0.00000000E+00  0.00000000E+00  0.00000000E+00
  0.00000000E+00  0.00000000E+00  0.00000000E+00
  0.00000000E+00  0.00000000E+00  0.00000000E+00
  0.00000000E+00  0.00000000E+00  0.00000000E+00
  0.00000000E+00  0.00000000E+00  0.00000000E+00
  0.00000000E+00  0.00000000E+00  0.00000000E+00
  0.00000000E+00  0.00000000E+00  0.00000000E+00
  0.00000000E+00  0.00000000E+00  0.00000000E+00
