Li Mn Co Ni O 
 1.0000000000000000
    11.4009387479999997   -0.1270461850000000   -0.2333408100000000
    -5.7172201769999997    9.9979219819999994    0.0770862630000000
     0.0362140600000000    0.0921245990000000    9.2636120850000001
 Li  Mn  Co  Ni  O  
   8  12   8  12  64
Direct
  0.1739640244439014  0.3369422332127331  0.8996435960724231
  0.1741711494995118  0.8372646675522193  0.9005298965667244
  0.6740687044980619  0.3374463756755812  0.8979721064647218
  0.6739236512372556  0.8375211337571234  0.8980063543186458
  0.3324951510649197  0.1612479776308719  0.4021460149320026
  0.3323810401401052  0.6608886136015408  0.4028776888980818
  0.8320679399696571  0.1684808387829583  0.4005746154728658
  0.8316040465158201  0.6681926881069380  0.4019963973397738
  0.0840830162788265  0.4129602785066542  0.2101260735690907
  0.0839617269889800  0.9129290210505342  0.2105180347442812
  0.5835973461341664  0.4204367460505050  0.2110188943517148
  0.5835707666836494  0.9204366522237009  0.2110902135796987
  0.0851208221494903  0.1637673387565435  0.2136367467984311
  0.0849489433397276  0.6636395841837902  0.2144449207821005
  0.5844902226932810  0.1721439366442792  0.2086913259630856
  0.5844227694358348  0.6720979088896500  0.2091322637929936
  0.1660964161648557  0.0813682965134911  0.7106466283320308
  0.1659849604796493  0.5813669326353950  0.7112814742671194
  0.6662385843112504  0.0839366528294457  0.7099185747069299
  0.6660424108592808  0.5838574455105817  0.7108520333777686
  0.1686325150957711  0.3277297508959098  0.4858380666847945
  0.1684477008066578  0.8278539497589840  0.4863134935180259
  0.6672319872986352  0.3381324059830383  0.4856234314994788
  0.6673114272998800  0.8382755857437755  0.4857059444430834
  0.3417463961294092  0.1735140285320039  0.9829932157451529
  0.3414859267021306  0.6733510429716847  0.9834863985618237
  0.8412114807221810  0.1690142408148680  0.9839013344301552
  0.8410756543831556  0.6690273782016124  0.9845570356732827
  0.4183597960842249  0.0865200974121152  0.7107746786339911
  0.4181388146577588  0.5863087552512094  0.7113599358795025
  0.9155590453500032  0.0844607342771172  0.7118234729999641
  0.9154784204731926  0.5844561683842500  0.7127397902329904
  0.3329635927752469  0.4147910750984555  0.2088795690902027
  0.3328283254160477  0.9146821991166197  0.2094261914984971
  0.8325512685440282  0.4188533160747779  0.2096040219161691
  0.8325662358254401  0.9188283046297034  0.2095060351940060
  0.4146833531602287  0.3315141917271670  0.7113291552890204
  0.4147545757185128  0.8315914800805504  0.7116041592222302
  0.9180615601874360  0.3322253295216084  0.7102695102714068
  0.9180624224219819  0.8322400429317887  0.7109426748464648
  0.1716231468065490  0.0840314720043231  0.1071805471590391
  0.1716049372554574  0.5842487145558581  0.1074488952968201
  0.6724245497100338  0.0898413241444976  0.1060783361970790
  0.6724199988719841  0.5899653624747817  0.1063855862121159
  0.4205912677217729  0.3387715692007933  0.0924052588724942
  0.4203635374721956  0.8388068992236377  0.0929138084788942
  0.9187531520513541  0.3239206644298594  0.0957458886471002
  0.9186825922520531  0.8240243222755962  0.0962200463928062
  0.3354412705227330  0.1697468345398922  0.6098363075660291
  0.3352778350218458  0.6695821139938496  0.6104345007943647
  0.8349161830326323  0.1677780087576946  0.6087567772676473
  0.8347516443055524  0.6677716852413653  0.6098566681377419
  0.2630483991201474  0.0251750286996384  0.8431116508303711
  0.2628017179508633  0.5249974197949011  0.8435826333027432
  0.7615876291564038  0.0227194085035899  0.8399486127634223
  0.7615112793773774  0.5227250281117156  0.8408509195212432
  0.2615751828681916  0.2394085589246587  0.8380393072027741
  0.2614426419885129  0.7393125482233776  0.8389302493465315
  0.7622053179190018  0.2378904267467406  0.8404416604269053
  0.7621738289232081  0.7379520096498891  0.8413025312797835
  0.3202126004829557  0.4050414443373427  0.5988523143415727
  0.3200416445268713  0.9051743931379563  0.5988314508786271
  0.8182178986349092  0.4136455062212004  0.5978420933568951
  0.8183450498020223  0.9136088265862703  0.5978625352267160
  0.2326961445542814  0.2489922279074245  0.3498336930295528
  0.2324403996017173  0.7487971197504276  0.3506716202714424
  0.7373802876417748  0.2635686569363945  0.3435834058663748
  0.7371985138026267  0.7633891255548575  0.3440268929868127
  0.0198972430584599  0.2563457681863338  0.3384859029863705
  0.0196019404619629  0.7562960975240091  0.3391165199881486
  0.5188831289424949  0.2612745973965505  0.3365993630412954
  0.5188251270208302  0.7612817070628722  0.3369310680175848
  0.0792854223501221  0.1601665025333361  0.5966996282675512
  0.0792865311125277  0.6605011431621276  0.5978224441765678
  0.5836770945632048  0.1665055236937659  0.5976114226973716
  0.5837321551154644  0.6666921531483488  0.5986979675261368
  0.9975403162610459  0.9984593636189092  0.8084146114485394
  0.9972603282056011  0.4979869590119222  0.8087238012915345
  0.4971572870479803  0.9972928229434300  0.8077766467937921
  0.4966725055532459  0.4967449475377737  0.8081784604520933
  0.9990376053600659  0.9945449114794476  0.3097053791888741
  0.9990127435257121  0.4941659287895110  0.3098885199079776
  0.4984969836084528  0.0023089575307460  0.3078153181357315
  0.4983163761567008  0.5020540491003997  0.3078654471075578
  0.1683905417199282  0.3310597304833042  0.1077238790648823
  0.1681543266851644  0.8308380417823440  0.1084340598221932
  0.6673220722519033  0.3391711660752612  0.1059854434912948
  0.6672505978865825  0.8390263473645528  0.1061788188324130
  0.4835179232285319  0.2516655261039705  0.8457764030954001
  0.4833031267953375  0.7513237433067859  0.8467407239675306
  0.9831578793374115  0.2358063046733211  0.8486704059891956
  0.9831845222483377  0.7358841012129478  0.8498057178132876
  0.0849076614803099  0.4176044973126238  0.6011424918593402
  0.0847445697707745  0.9174155222388043  0.6011169488997262
  0.5789570713377147  0.4187206758661644  0.5990543050505782
  0.5790029375112924  0.9187240899550515  0.5984106368815588
  0.2380809447001500  0.4732821912290266  0.3449551228715555
  0.2380593791474921  0.9733489259061108  0.3451620283455778
  0.7314839558252060  0.4821032803397229  0.3486719315160990
  0.7316616857624696  0.9821414605881873  0.3484533771329302
  0.4193416224524094  0.0976912477107413  0.0948311363402617
  0.4193293833613821  0.5976460823480026  0.0951460776636728
  0.9211376839851294  0.0847146423744673  0.0954863685983657
  0.9210756504949638  0.5846546097198042  0.0961520939322394
