System
1.0
4.924393709222345 2.04820120377e-05 -2.29934909662e-05
-2.12937960727e-05 6.358216464907232 0.0007377353622713
4.7223774299e-05 -0.0010654971542616 9.388737039124075
Li Mn P O 
4 4 4 16 
direct
0.0185828878080661 0.2500120347625236 0.6663362517874708 c
0.4814181770458939 0.2499990615198221 0.1663364844728203 c
0.9814154840026459 0.7500005132483777 0.3336592296633231 c
0.5185844265707755 0.74998947130012 0.8336595525639205 c
0.999980067168444 0.5000168982847742 9.8869744425e-06 a
0.4999794893197507 0.4999781431662473 0.4999856937717749 a
1.2615228108499997e-05 1.6897808670700018e-05 0.9999891632568524 a
0.5000273815859552 0.9999764059760128 0.5000134394513006 a
0.47845518222354266 0.7500039709446706 0.1795210761139153 c
0.021544971756150597 0.7500051368835596 0.6795209387264772 c
0.5215372229279419 0.24999745545691 0.8204791173214805 c
0.9784630083808152 0.24999551712000598 0.3204791542198168 c
0.1517185536725218 0.5485303263567465 0.6187708326231302 d
0.34828563415788155 0.5485304886023736 0.1187697378010159 d
0.6517056192373774 0.45147104975983166 0.8812318043387658 d
0.8482983361786945 0.4514694589598002 0.3812336590011468 d
0.651698794714287 0.0485210704294008 0.8812313792473074 d
0.8482974065196721 0.04852123575603021 0.3812292087489609 d
0.7890441819244632 0.7500016259009566 0.1444989635867457 c
0.5837190527641315 0.2499988938679724 0.6550398537025791 c
0.2109453335457885 0.250001567780233 0.8554982638291397 c
0.2890536563838079 0.2499981770972142 0.3554976723188444 c
0.08371612767727697 0.7500018195481307 0.8449619291908224 c
0.41628438296772835 0.7499998081436552 0.3449610539772756 c
0.34828364268095 0.9514795270644306 0.11877346039559239 d
0.9162813442136597 0.2500001001332353 0.155040673065499 c
0.710954392617137 0.7500003580048762 0.6444985646517426 c
0.15171162672653976 0.9514809861234235 0.6187719551978335 d
