Mn12O24                                 
1.0
       11.4342088699         0.0000000000         0.0000000000
       -5.7170004845         9.9021353060         0.0000000000
        0.0000000000         0.0000000000        15.1019706726
   Mn    O   Ni   Na
   36   96   12    4
Direct
     0.085152999         0.168518007         0.319812000
     0.085157000         0.668518007         0.319817007
     0.583950996         0.168288007         0.326005012
     0.583953977         0.668285012         0.326007009
     0.334540009         0.168934003         0.323736012
     0.334549010         0.668944001         0.323747993
     0.833378971         0.167820007         0.322097003
     0.833380997         0.667816997         0.322106987
     0.334544986         0.418159008         0.323540002
     0.334533006         0.918161988         0.323525995
     0.833552003         0.417661011         0.322255999
     0.833537996         0.917662024         0.322239012
     0.166614994         0.082958996         0.683407009
     0.166614994         0.582974970         0.683384001
     0.666144013         0.081648998         0.673676014
     0.666144013         0.581655025         0.673668981
     0.166456997         0.331683010         0.682689011
     0.166454002         0.831677973         0.682699025
     0.666158020         0.332076013         0.673786998
     0.666164994         0.832086980         0.673761010
     0.416415989         0.332094997         0.675504029
     0.416424006         0.832104981         0.675503016
     0.915234029         0.331589013         0.681051016
     0.915228009         0.831583023         0.681052983
     0.499509990         0.499395996         0.999692976
     0.499516994         0.999395013         0.999704003
     0.999491990         0.499410003         0.999846995
     0.999487996         0.999392986         0.999818981
     0.499504000         0.249401003         0.999674976
     0.499505997         0.749400020         0.999673009
     0.999467015         0.249397993         0.999754012
     0.999469995         0.749396026         0.999777019
     0.249506995         0.499426007         0.999916017
     0.249504998         0.999422014         0.999921024
     0.749466002         0.499363005         0.999643028
     0.749469995         0.999366999         0.999623001
     0.001234000         0.495902985         0.615247011
     0.001252000         0.995887995         0.615257025
     0.497049004         0.496174991         0.610871017
     0.497049987         0.996172011         0.610870004
     0.001213000         0.250203013         0.614661992
     0.001206000         0.750203013         0.614672005
     0.497143000         0.245375007         0.610921025
     0.497103989         0.745347023         0.610918999
     0.244605005         0.494778007         0.615427017
     0.244602993         0.994767010         0.615436971
     0.750313997         0.497211009         0.610674977
     0.750307024         0.997220993         0.610669017
     0.245009005         0.244513005         0.615284979
     0.245011002         0.744527996         0.615266025
     0.751913011         0.248094007         0.611295998
     0.751919985         0.748108983         0.611277997
     0.004537000         0.002748000         0.384624004
     0.004540000         0.502744973         0.384642005
     0.500828981         0.003217000         0.389005989
     0.500855029         0.503220975         0.389005005
     0.004230000         0.256650001         0.384478986
     0.004235000         0.756681025         0.384476990
     0.500908971         0.253737986         0.389050990
     0.500913024         0.753742993         0.389050990
     0.247732997         0.001727000         0.386173010
     0.247769997         0.501739025         0.386195987
     0.752978027         0.004339000         0.387456000
     0.752977014         0.504334986         0.387475997
     0.249814004         0.253017992         0.387634993
     0.249818996         0.753023028         0.387636989
     0.753925025         0.254723012         0.388444006
     0.753925979         0.754734993         0.388435990
     0.168293998         0.084647000         0.256922007
     0.168303996         0.584667027         0.256926000
     0.665073991         0.081569001         0.261556000
     0.665096998         0.581570029         0.261565000
     0.168188006         0.332296014         0.256821990
     0.168182999         0.832289994         0.256810993
     0.665162981         0.332580000         0.261667013
     0.665143013         0.832592010         0.261669010
     0.417053998         0.083233997         0.260751009
     0.417066008         0.583234012         0.260771990
     0.915974021         0.082255997         0.258020014
     0.915989995         0.582258999         0.258035004
     0.417941988         0.333537012         0.261503011
     0.417935014         0.833540022         0.261503994
     0.913864017         0.331252009         0.256967008
     0.913864017         0.831248999         0.256963998
     0.167716995         0.086070001         0.063339002
     0.167732000         0.586064994         0.063359000
     0.667726994         0.086020999         0.063184999
     0.667720020         0.586025000         0.063179001
     0.167581007         0.334293008         0.063230999
     0.167594001         0.834297001         0.063247003
     0.667666972         0.334262997         0.063087001
     0.667668998         0.834273994         0.063079000
     0.417291999         0.084995002         0.063744001
     0.417284995         0.584995985         0.063743003
     0.917123020         0.084914997         0.063665003
     0.917118013         0.584936023         0.063706003
     0.416115999         0.334403992         0.063226998
     0.416132987         0.834406018         0.063225999
     0.915910006         0.334279001         0.063125998
     0.915907979         0.834277987         0.063124001
     0.083084002         0.164470002         0.936438978
     0.083079003         0.664472997         0.936464012
     0.582889974         0.164400995         0.936182976
     0.582880974         0.664391994         0.936174989
     0.081849001         0.413906991         0.935948014
     0.081869997         0.913878977         0.935938001
     0.581727028         0.413778007         0.935654998
     0.581731975         0.913788021         0.935652018
     0.331063986         0.164367005         0.936402977
     0.331057996         0.664370000         0.936398983
     0.831209004         0.164396003         0.936245978
     0.831198990         0.664385021         0.936260998
     0.331059992         0.412611008         0.936406016
     0.331061006         0.912607014         0.936424971
     0.831296980         0.412698001         0.936236024
     0.831279993         0.912676990         0.936227977
     0.081794001         0.166856006         0.743993998
     0.081785001         0.666842997         0.743996024
     0.583078027         0.166908994         0.737133980
     0.583103001         0.666953981         0.737137973
     0.083172001         0.417133987         0.745998025
     0.083160996         0.917122006         0.746011972
     0.584381998         0.417807013         0.738049984
     0.584405005         0.917809010         0.738054991
     0.337130010         0.168610007         0.741100013
     0.337103993         0.668624997         0.741096020
     0.832314014         0.165151998         0.739921987
     0.832298994         0.665117979         0.739929974
     0.336896002         0.419692010         0.740885973
     0.336897999         0.919683993         0.740878999
     0.832204998         0.418437988         0.739997983
     0.832207024         0.918471992         0.739957988
     0.084178999         0.418011993         0.316767007
     0.084156998         0.918003976         0.316758007
     0.584186018         0.418374985         0.325673997
     0.584173024         0.918383002         0.325675994
     0.416328996         0.082061000         0.675258994
     0.416328013         0.582067013         0.675273001
     0.916125000         0.082105003         0.676263988
     0.916117013         0.582090020         0.676276982
     0.249483004         0.249396995         0.999916017
     0.249486998         0.749394000         0.999929011
     0.749451995         0.249348000         0.999677002
     0.749441028         0.749339998         0.999674022
     0.083411001         0.418047994         0.499193996
     0.083443999         0.918052971         0.499217004
     0.584169984         0.918380022         0.499217004
     0.584190011         0.419369996         0.499217004
