System                                  
   1.0000000000000000     
     9.8973179505287323   -0.0029271268046785   -0.0007080970859342
     0.0041209076868966   12.6993594647412582   -0.0001603373987241
     0.0006672815599464    0.0001263835220560    9.3698092335868761
  Li              Fe              P               O             
    13    16    16    64
Direct
     0.2336702244337362    0.1253722773067331    0.1641635705527996
     0.2370843644449204    0.6218801985045364    0.1736204667319204
     0.7321938698968971    0.1260987692778899    0.1645984915237469
     0.7332728232749287    0.6227250604778419    0.1717611904570799
     0.4867697101269457    0.8736301968430659    0.3280103061670789
     0.9767586739355785    0.3752020674133961    0.3261611226010958
     0.9830949535897684    0.8731277121194670    0.3309942593229955
     0.0067761190548620    0.6241011956295417    0.6777716086411769
     0.5074710692285993    0.6220027948508943    0.6786019496307094
     0.2688483683879744    0.3747678076407362    0.8369021509299149
     0.2639007151828510    0.8771141446914846    0.8279929546293643
     0.7676552712731103    0.3720521176564933    0.8263882295426679
     0.7641217623367340    0.8764905525364908    0.8282825868778982
     0.0012820224165375    0.0030743187187880    0.9925752437052102
     0.0007142826562818    0.4979423823826347    0.0040041926416085
     0.5003445944002051    0.0036551326613713    0.9916041165510321
     0.4984185983321539    0.4967774420560488    0.0077218199639089
     0.0007347994923291    0.2474639864368683    0.9933828580761200
     0.0005159839049451    0.7506282435826603    0.0007602924609130
     0.5003229290718836    0.2492599766089041    0.9976079433099370
     0.5013151747285371    0.7505601558299406    0.0010566262846970
     0.2470909510380686    0.0032177903004433    0.4990575997776238
     0.2473758340661464    0.5039344124360892    0.4989348530178332
     0.7480407711309515    0.0044175585682022    0.5040469452480623
     0.7432202518423651    0.4999233037113534    0.4958573961069935
     0.2661963444901295    0.2609924845064460    0.5125846731372753
     0.2468558817452846    0.7473873151979900    0.4985069756501418
     0.7561669325110318    0.2522035538548910    0.5033505395302239
     0.7434692153973351    0.7458924575741345    0.4986273089575143
     0.2596345129077883    0.1243946468171793    0.8156067260897396
     0.2630044964122220    0.6277913153998451    0.8251137601412212
     0.7598478066408269    0.1220074084431052    0.8191861878202007
     0.7632800772777324    0.6262920963891259    0.8233145996590399
     0.0205616021910286    0.3821288256885420    0.6763382673511688
     0.0140177014487608    0.8698254607676695    0.6724802606371776
     0.5180569548644655    0.3776607900801187    0.6761343342113616
     0.5128220444131631    0.8690312132403423    0.6726759282159966
     0.4832622668926809    0.1192216761749899    0.3296860556237734
     0.4819497254329058    0.6290148806377506    0.3224205756842642
     0.9874570939702225    0.1228239292518306    0.3276832766632399
     0.9840230618270077    0.6273774725901436    0.3217717257143113
     0.2396385047599206    0.3703064792744725    0.1803175925824658
     0.2366078651708939    0.8780653081184985    0.1783992931316120
     0.7387961755318960    0.3733095661041453    0.1786797711724467
     0.7368061832273093    0.8783445747735292    0.1800825951209405
     0.1118596424422279    0.1240339551255196    0.8700866294412472
     0.1101045824072141    0.6276735059162316    0.8670119389420589
     0.6127295107512318    0.1241104341770868    0.8768622747266828
     0.6110427641835617    0.6263911592362231    0.8668093483238146
     0.0475162558097167    0.3758042344388014    0.8417583802882976
     0.0405380930738943    0.8752137129349816    0.8374123260644830
     0.5358446676347950    0.3767143339220284    0.8431292585872322
     0.5394306895440245    0.8754279207963925    0.8377513960477002
     0.2722103283263954    0.1252183763117176    0.6432543522464707
     0.2906243207973931    0.6282363407053597    0.6592990912251339
     0.7716327396572744    0.1176111100665457    0.6497799139085821
     0.7884622833427295    0.6258353661460770    0.6567963166899612
     0.3614810744338375    0.3713513655349178    0.6350468402627163
     0.3588532614938838    0.8790008736509473    0.6312783122908578
     0.8679383836379521    0.3759053492563093    0.6379658474197089
     0.8601648395101745    0.8799147760342549    0.6310053023515200
     0.0986571089379397    0.2904626238202784    0.6059761558756287
     0.0713768085460628    0.7646046511451311    0.6174838555323617
     0.5918043257374964    0.2834713270241115    0.6154163919448088
     0.5702467019959745    0.7632798330879536    0.6196300550586514
     0.0801778660914037    0.4873799592599773    0.6223347521786398
     0.0917909427478618    0.9617136343483772    0.6033627946168966
     0.5743293446428008    0.4835024801917738    0.6213090429592237
     0.5900798876272109    0.9601641362752610    0.6021736877982277
     0.4150527585562334    0.0170693451528271    0.3881420661342637
     0.4094155377015286    0.5337077222140112    0.3841220212088129
     0.9138634724994633    0.0247106020377302    0.3909831280533817
     0.9191421765827176    0.5268645596845155    0.3826691258276174
     0.1668624721150172    0.2707286868372343    0.1228922492972092
     0.1685151877389902    0.7763377277044883    0.1247836902889022
     0.6702865159359487    0.2724217204787487    0.1212372049760309
     0.6692826361985449    0.7764598028460700    0.1256559111082916
     0.1428281316409244    0.1143195748959992    0.3663987099935638
     0.1376016393242228    0.6292012446105930    0.3612492137176041
     0.6380949618566899    0.1153903594635110    0.3667687142755732
     0.6359504997900595    0.6267860778882969    0.3621546029745304
     0.2183625470476316    0.3668539246198395    0.3498120013036092
     0.2077215959070550    0.8817328721057979    0.3470857741874958
     0.7340299152426538    0.3736164641638821    0.3452811940091827
     0.7112928665085041    0.8814474325386579    0.3489713719991559
     0.4560085578415624    0.1229859982609698    0.1650465936736879
     0.4595820538510658    0.6269203169150134    0.1553541496301554
     0.9608650314978390    0.1212914896989064    0.1626599609041576
     0.9593986744227709    0.6261570467563630    0.1553424450503858
     0.3866069216829470    0.3707807767724287    0.1249155879080180
     0.3896953814731636    0.8777737574738311    0.1398740063504066
     0.8911581326481295    0.3724086357628736    0.1284344785676878
     0.8899561109017442    0.8781208970465534    0.1414160674369348
     0.3310884560880802    0.2245380218748883    0.8696630897821865
     0.3293743351571348    0.7295889891359957    0.8837440076607290
     0.8324106037356674    0.2233062694593802    0.8693384446179884
     0.8300941540765117    0.7285677833481875    0.8807447757336802
     0.1672096156716801    0.4725028461133458    0.1312807209854443
     0.1705356050560936    0.9775290178212513    0.1152417477815316
     0.6715356945473612    0.4747144128489303    0.1217156525642173
     0.6680477517498946    0.9772964622597466    0.1186870607042904
     0.4141951280676592    0.2147769906954139    0.3979488125345482
     0.4182740307336876    0.7334376561751144    0.3767892697145308
     0.9285884113030136    0.2250610765698857    0.3875853753087133
     0.9149420659552343    0.7282780776632961    0.3790095359109927
     0.3304149774759607    0.0229089747824150    0.8677039884362596
     0.3298041746671646    0.5270002551315441    0.8845842473237694
     0.8294598596632905    0.0211029354035095    0.8761874991668199
     0.8327158254578184    0.5261047917520356    0.8815781370502109

  0.00000000E+00  0.00000000E+00  0.00000000E+00
  0.00000000E+00  0.00000000E+00  0.00000000E+00
  0.00000000E+00  0.00000000E+00  0.00000000E+00
  0.00000000E+00  0.00000000E+00  0.00000000E+00
  0.00000000E+00  0.00000000E+00  0.00000000E+00
  0.00000000E+00  0.00000000E+00  0.00000000E+00
  0.00000000E+00  0.00000000E+00  0.00000000E+00
  0.00000000E+00  0.00000000E+00  0.00000000E+00
  0.00000000E+00  0.00000000E+00  0.00000000E+00
  0.00000000E+00  0.00000000E+00  0.00000000E+00
  0.00000000E+00  0.00000000E+00  0.00000000E+00
  0.00000000E+00  0.00000000E+00  0.00000000E+00
  0.00000000E+00  0.00000000E+00  0.00000000E+00
  0.00000000E+00  0.00000000E+00  0.00000000E+00
  0.00000000E+00  0.00000000E+00  0.00000000E+00
  0.00000000E+00  0.00000000E+00  0.00000000E+00
  0.00000000E+00  0.00000000E+00  0.00000000E+00
  0.00000000E+00  0.00000000E+00  0.00000000E+00
  0.00000000E+00  0.00000000E+00  0.00000000E+00
  0.00000000E+00  0.00000000E+00  0.00000000E+00
  0.00000000E+00  0.00000000E+00  0.00000000E+00
  0.00000000E+00  0.00000000E+00  0.00000000E+00
  0.00000000E+00  0.00000000E+00  0.00000000E+00
  0.00000000E+00  0.00000000E+00  0.00000000E+00
  0.00000000E+00  0.00000000E+00  0.00000000E+00
  0.00000000E+00  0.00000000E+00  0.00000000E+00
  0.00000000E+00  0.00000000E+00  0.00000000E+00
  0.00000000E+00  0.00000000E+00  0.00000000E+00
  0.00000000E+00  0.00000000E+00  0.00000000E+00
  0.00000000E+00  0.00000000E+00  0.00000000E+00
  0.00000000E+00  0.00000000E+00  0.00000000E+00
  0.00000000E+00  0.00000000E+00  0.00000000E+00
  0.00000000E+00  0.00000000E+00  0.00000000E+00
  0.00000000E+00  0.00000000E+00  0.00000000E+00
  0.00000000E+00  0.00000000E+00  0.00000000E+00
  0.00000000E+00  0.00000000E+00  0.00000000E+00
  0.00000000E+00  0.00000000E+00  0.00000000E+00
  0.00000000E+00  0.00000000E+00  0.00000000E+00
  0.00000000E+00  0.00000000E+00  0.00000000E+00
  0.00000000E+00  0.00000000E+00  0.00000000E+00
  0.00000000E+00  0.00000000E+00  0.00000000E+00
  0.00000000E+00  0.00000000E+00  0.00000000E+00
  0.00000000E+00  0.00000000E+00  0.00000000E+00
  0.00000000E+00  0.00000000E+00  0.00000000E+00
  0.00000000E+00  0.00000000E+00  0.00000000E+00
  0.00000000E+00  0.00000000E+00  0.00000000E+00
  0.00000000E+00  0.00000000E+00  0.00000000E+00
  0.00000000E+00  0.00000000E+00  0.00000000E+00
  0.00000000E+00  0.00000000E+00  0.00000000E+00
  0.00000000E+00  0.00000000E+00  0.00000000E+00
  0.00000000E+00  0.00000000E+00  0.00000000E+00
  0.00000000E+00  0.00000000E+00  0.00000000E+00
  0.00000000E+00  0.00000000E+00  0.00000000E+00
  0.00000000E+00  0.00000000E+00  0.00000000E+00
  0.00000000E+00  0.00000000E+00  0.00000000E+00
  0.00000000E+00  0.00000000E+00  0.00000000E+00
  0.00000000E+00  0.00000000E+00  0.00000000E+00
  0.00000000E+00  0.00000000E+00  0.00000000E+00
  0.00000000E+00  0.00000000E+00  0.00000000E+00
  0.00000000E+00  0.00000000E+00  0.00000000E+00
  0.00000000E+00  0.00000000E+00  0.00000000E+00
  0.00000000E+00  0.00000000E+00  0.00000000E+00
  0.00000000E+00  0.00000000E+00  0.00000000E+00
  0.00000000E+00  0.00000000E+00  0.00000000E+00
  0.00000000E+00  0.00000000E+00  0.00000000E+00
  0.00000000E+00  0.00000000E+00  0.00000000E+00
  0.00000000E+00  0.00000000E+00  0.00000000E+00
  0.00000000E+00  0.00000000E+00  0.00000000E+00
  0.00000000E+00  0.00000000E+00  0.00000000E+00
  0.00000000E+00  0.00000000E+00  0.00000000E+00
  0.00000000E+00  0.00000000E+00  0.00000000E+00
  0.00000000E+00  0.00000000E+00  0.00000000E+00
  0.00000000E+00  0.00000000E+00  0.00000000E+00
  0.00000000E+00  0.00000000E+00  0.00000000E+00
  0.00000000E+00  0.00000000E+00  0.00000000E+00
  0.00000000E+00  0.00000000E+00  0.00000000E+00
  0.00000000E+00  0.00000000E+00  0.00000000E+00
  0.00000000E+00  0.00000000E+00  0.00000000E+00
  0.00000000E+00  0.00000000E+00  0.00000000E+00
  0.00000000E+00  0.00000000E+00  0.00000000E+00
  0.00000000E+00  0.00000000E+00  0.00000000E+00
  0.00000000E+00  0.00000000E+00  0.00000000E+00
  0.00000000E+00  0.00000000E+00  0.00000000E+00
  0.00000000E+00  0.00000000E+00  0.00000000E+00
  0.00000000E+00  0.00000000E+00  0.00000000E+00
  0.00000000E+00  0.00000000E+00  0.00000000E+00
  0.00000000E+00  0.00000000E+00  0.00000000E+00
  0.00000000E+00  0.00000000E+00  0.00000000E+00
  0.00000000E+00  0.00000000E+00  0.00000000E+00
  0.00000000E+00  0.00000000E+00  0.00000000E+00
  0.00000000E+00  0.00000000E+00  0.00000000E+00
  0.00000000E+00  0.00000000E+00  0.00000000E+00
  0.00000000E+00  0.00000000E+00  0.00000000E+00
  0.00000000E+00  0.00000000E+00  0.00000000E+00
  0.00000000E+00  0.00000000E+00  0.00000000E+00
  0.00000000E+00  0.00000000E+00  0.00000000E+00
  0.00000000E+00  0.00000000E+00  0.00000000E+00
  0.00000000E+00  0.00000000E+00  0.00000000E+00
  0.00000000E+00  0.00000000E+00  0.00000000E+00
  0.00000000E+00  0.00000000E+00  0.00000000E+00
  0.00000000E+00  0.00000000E+00  0.00000000E+00
  0.00000000E+00  0.00000000E+00  0.00000000E+00
  0.00000000E+00  0.00000000E+00  0.00000000E+00
  0.00000000E+00  0.00000000E+00  0.00000000E+00
  0.00000000E+00  0.00000000E+00  0.00000000E+00
  0.00000000E+00  0.00000000E+00  0.00000000E+00
  0.00000000E+00  0.00000000E+00  0.00000000E+00
  0.00000000E+00  0.00000000E+00  0.00000000E+00
  0.00000000E+00  0.00000000E+00  0.00000000E+00
