System                                  
   1.0000000000000000     
     5.4951266793271971    0.1440657010552521    8.6344757120774922
     2.5756545582665664    4.9467306017349264    8.6666691930631945
     0.1128881008172135    0.1370800280277442   10.2883067280951561
  Li              Co              O             
     3     8    16
Direct
     0.2460999330143240    0.2506061864014789    0.7458357748338342
     0.2470983290445257    0.7439397411117805    0.2508942232255331
     0.2528689941342274    0.7518572200860633    0.7545283575918895
     0.9980833016830313    1.0004841696702691    0.9995399236463469
     0.9981227190629198    0.9977705397997774    0.4991793933037404
     0.9983736254492791    0.4983677817640822    0.9992918771556655
     0.9979129510692230    0.4987705603571753    0.4979302559879434
     0.5018238259288478    0.0019540875670852    0.0025513634370825
     0.5017811903769396    0.0013366293448241    0.5007012763026597
     0.5022955670555257    0.5015647013688559    0.0007356453585424
     0.5008791949393505    0.5001918203169474    0.5005408315024464
     0.1419048412845181    0.1295336146799004    0.1250344625404541
     0.1391423515221953    0.1253169989953642    0.6350367667564293
     0.1356114651948748    0.6401578641683430    0.1254721313496144
     0.1388590778551041    0.6242424326675662    0.6317122989221833
     0.6304357547905480    0.1369756692844610    0.1391038791415722
     0.6190960693398794    0.1385034941500417    0.6442360319443368
     0.6231567844706134    0.6424243115855558    0.1353878075081436
     0.6194362016839933    0.6456064378430793    0.6373398338929982
     0.3629061236952113    0.3683625386634372    0.3739238591282248
     0.3618173430213221    0.3722086747136921    0.8658017001422542
     0.3668091131459638    0.8602754748178387    0.3711058032685671
     0.3616168873308642    0.8748113833005781    0.8705941978036880
     0.8677198035367241    0.3647316602868210    0.3590212677558534
     0.8786358458438007    0.3608132255408040    0.8593480052336221
     0.8752994798779192    0.8611869622967628    0.3629204466423064
     0.8760028434879635    0.8568651724716791    0.8634345819012780

  0.00000000E+00  0.00000000E+00  0.00000000E+00
  0.00000000E+00  0.00000000E+00  0.00000000E+00
  0.00000000E+00  0.00000000E+00  0.00000000E+00
  0.00000000E+00  0.00000000E+00  0.00000000E+00
  0.00000000E+00  0.00000000E+00  0.00000000E+00
  0.00000000E+00  0.00000000E+00  0.00000000E+00
  0.00000000E+00  0.00000000E+00  0.00000000E+00
  0.00000000E+00  0.00000000E+00  0.00000000E+00
  0.00000000E+00  0.00000000E+00  0.00000000E+00
  0.00000000E+00  0.00000000E+00  0.00000000E+00
  0.00000000E+00  0.00000000E+00  0.00000000E+00
  0.00000000E+00  0.00000000E+00  0.00000000E+00
  0.00000000E+00  0.00000000E+00  0.00000000E+00
  0.00000000E+00  0.00000000E+00  0.00000000E+00
  0.00000000E+00  0.00000000E+00  0.00000000E+00
  0.00000000E+00  0.00000000E+00  0.00000000E+00
  0.00000000E+00  0.00000000E+00  0.00000000E+00
  0.00000000E+00  0.00000000E+00  0.00000000E+00
  0.00000000E+00  0.00000000E+00  0.00000000E+00
  0.00000000E+00  0.00000000E+00  0.00000000E+00
  0.00000000E+00  0.00000000E+00  0.00000000E+00
  0.00000000E+00  0.00000000E+00  0.00000000E+00
  0.00000000E+00  0.00000000E+00  0.00000000E+00
  0.00000000E+00  0.00000000E+00  0.00000000E+00
  0.00000000E+00  0.00000000E+00  0.00000000E+00
  0.00000000E+00  0.00000000E+00  0.00000000E+00
  0.00000000E+00  0.00000000E+00  0.00000000E+00
