System
1.0
5.452145902492405 0.1009074338136047 8.509087420004786
2.543208284772338 4.899562403122879 8.525099016007164
0.087256993005293 0.087029889523097 10.154609045634304
Li Co O 
3 8 16 
direct
0.2495833676434411 0.249411412400886 0.7507300617257961 Li
0.2482000489779775 0.7505008989951435 0.251189944479798 Li
0.2456342165075201 0.7521004839026513 0.7519249302987487 Li
0.9975716061999946 0.9995547266044362 0.9986753022806503 Co
0.9972378654233571 0.9984694365537594 0.4995593146180848 Co
0.9967445557520812 0.4992986035220723 0.9987417291146679 Co
0.9981860603685092 0.4986691741561182 0.4989304964373414 Co
0.5017745679815583 1.0006022917254922 1.0013417847582715 Co
0.5027509552327607 0.0004196303045723 0.5010009252654452 Co
0.5032180501163819 0.501463728679897 1.0000737466280698 Co
0.5023809770764205 0.500689068650608 0.500769192282233 Co
0.1376356477380538 0.1283026462644251 0.1294015399558231 O
0.1385294070258062 0.1290064251697772 0.6279036896240954 O
0.1417231935493288 0.6265065645240191 0.1276413298791302 O
0.1391641661494541 0.6280573558761925 0.6273361519775529 O
0.6244115451021854 0.139089788685558 0.1391562879147161 O
0.6222377992912608 0.1385263376196429 0.6409528119955008 O
0.6245134074933197 0.6394153655592117 0.137424796478567 O
0.6232389430907206 0.6399868612321103 0.6391019362587226 O
0.3624072575472211 0.3705841233721512 0.3710348205902239 O
0.3582790065044654 0.3716560102358412 0.8736883750501714 O
0.3613068892758822 0.8715657976777086 0.37096659301648 O
0.3610234730765351 0.8726472625215909 0.8713350168433197 O
0.8755790136951973 0.3601429852112587 0.3612703180085556 O
0.8755484249495757 0.3627588982273133 0.8601060183836179 O
0.8779959892437547 0.8590023640397737 0.3608980962869837 O
0.8769131828269254 0.860431111542041 0.8600467861246248 O
