System
1.0
10.362654199567075 0.6680397148495248 5.890074447848777
3.510047580411978 10.073208645045039 5.577995800114263
-0.2770176937874708 0.4281704396772118 11.509736570530237
Li Mn O 
9 32 64 
direct
0.0627879319887293 0.0624023327575218 0.0661527931860016 Li
0.5684010329501077 0.0669169690938372 0.059193902677675 Li
0.5720750114685095 0.5718962258922602 0.0542430331812286 Li
0.4318641836129911 0.4318673527854655 0.9419540878936646 Li
0.434260551264962 0.9274125158360782 0.4485019753272242 Li
0.4391920085835631 0.9314051557187039 0.9391633058047777 Li
0.9276519579309296 0.4336328950636453 0.4445207225585848 Li
0.9321580335882833 0.4388234405677762 0.9349646263370256 Li
0.936282198195665 0.9360920110298571 0.9419257618050173 Li
0.2434967265660079 0.2444358532437025 0.0037100969321348 Mn
0.2413260061808308 0.2397203210446872 0.5071210844611205 Mn
0.2541932048070275 0.7487000590226538 0.0035559856035462 Mn
0.2493669608000784 0.7533623277199978 0.5012516500575459 Mn
0.7495090841086269 0.2541928766801139 0.9977300416482171 Mn
0.7505437223690167 0.2488542599486925 0.4965642639753408 Mn
0.7588339036927324 0.7560923371620653 0.9943996181686239 Mn
0.7508556868387027 0.7514294554423995 0.4986095643877043 Mn
0.2489144760371192 0.9977682543749185 0.2550524088872127 Mn
0.243678544308966 0.9948729452048046 0.7562860247824987 Mn
0.2485207654687545 0.4978793418354002 0.2592819123028113 Mn
0.2486210614988994 0.4969156778162528 0.747162122633251 Mn
0.7517724331390759 0.0021849264872277 0.2512058772211226 Mn
0.7523732413386794 0.0035769210928704 0.7430619003284824 Mn
0.7524829358684799 0.5038502180586549 0.2451624091000177 Mn
0.7504332865473917 0.5045030496783162 0.744366378967647 Mn
0.9970260135064076 0.2501617121517653 0.2511380009222996 Mn
0.9956058558971043 0.2429788826551255 0.7521958615251468 Mn
0.0017070495170966 0.7521878544839534 0.2537216434083366 Mn
0.003559459248393 0.7528477254348188 0.7452191937731648 Mn
0.4978255051007607 0.2492449077321027 0.2561460799427751 Mn
0.4966857139800748 0.246907541630531 0.7460447722408153 Mn
0.5049454674494953 0.7520005496802272 0.2487470467401339 Mn
0.503368096938584 0.7521035077820454 0.7489844711593859 Mn
0.244203358419813 0.2437162301891588 0.2590319354308001 Mn
0.2408512278021629 0.2404512365224737 0.7601633060985683 Mn
0.2557281263767631 0.7522171541867612 0.2479729335391154 Mn
0.2482429324599823 0.7468813030921967 0.7541623621915402 Mn
0.7528858599142051 0.2546582505682807 0.2428866940663439 Mn
0.7481743982209719 0.2490387698862148 0.7468059161946989 Mn
0.7531916035119225 0.7519328354132356 0.2489008082020393 Mn
0.7545929215575433 0.7576442544415872 0.7387584868236289 Mn
0.1335758701311301 0.1330985422482538 0.3515264733559341 O
0.1278657165267903 0.1261547532868499 0.8603149836403245 O
0.1471410988119302 0.6425848571133272 0.3471107591327643 O
0.1350517465542477 0.6366025296992543 0.8534505575501661 O
0.6449564300928181 0.1441529746298223 0.3431668623813705 O
0.6364052772855914 0.1339680059646227 0.8497753068729237 O
0.6444226707599037 0.6407446509485457 0.3417536007820907 O
0.6391801682587988 0.6481818343147963 0.8506329562974391 O
0.1248044012122291 0.3517576109863175 0.1349121353268256 O
0.1187262923395458 0.3405790699275545 0.6424646181695916 O
0.145575335648272 0.8616710851715907 0.1210260527480914 O
0.1244934296331114 0.8522496022211522 0.6389404714136258 O
0.6414338393989916 0.3659977166664792 0.1165941509529967 O
0.6428345016927572 0.3524194414833156 0.6230234168058123 O
0.641995002807835 0.8628547996600614 0.1196383932707357 O
0.6436577381538238 0.8606080754572861 0.6209207292046521 O
0.3516124674139123 0.1249482542801046 0.1386760635512373 O
0.3417522250739775 0.1178080239181076 0.6474020274974417 O
0.3667154433610345 0.6410692139799727 0.1248169808878114 O
0.3518046057131203 0.6427860365979101 0.6321263084817069 O
0.8625781927979278 0.14523948160221 0.1182022450047132 O
0.8513501464142482 0.1246215976050702 0.637884442347093 O
0.8671115006944092 0.6455472626292368 0.1194282047722908 O
0.8558716232240174 0.64010260145094 0.6292849953141644 O
0.1317760280996493 0.1337906679389838 0.1307174404554668 O
0.1273622394962192 0.1268564197264154 0.6370521169309665 O
0.1409019355727255 0.6388146393320371 0.1260846651975899 O
0.1343353018508562 0.643547694149579 0.6239616443946885 O
0.6371831663088141 0.1434420019229829 0.1211471072114705 O
0.6421119787050428 0.1356314908604311 0.6196155129222164 O
0.6501340437442252 0.6426316741924032 0.1095001961777541 O
0.6378154302410841 0.6412031812611838 0.6252684950909931 O
0.3551938765140144 0.3579407355063799 0.1568789020303794 O
0.3496524055769573 0.3504039465905664 0.6585297531441194 O
0.3671320982783886 0.8703489590948266 0.14730183627127 O
0.3559352601125392 0.8651242814678685 0.6535172734535358 O
0.8689699335056809 0.3670739897465579 0.1423087449978166 O
0.8671152252311933 0.3517653218343827 0.6465902508622035 O
0.8644332176180786 0.8659335865695014 0.1484765955565124 O
0.8670193126082647 0.8690499924754751 0.6458032891922048 O
0.3538683804693091 0.1327962973216127 0.3821634924391821 O
0.3525194763158208 0.1337918089293156 0.8841409549177957 O
0.3645040712290563 0.6523495751593694 0.3728240542897638 O
0.3591861477600293 0.6390666779694447 0.8791184484761576 O
0.877633589413938 0.1509124655303377 0.357973524879298 O
0.8702407598086925 0.1435155603421393 0.8698269293374423 O
0.8621121324442403 0.638716755065788 0.3744844438912974 O
0.8792350181873915 0.6508030061255 0.862255012379441 O
0.133673252233464 0.3529809548475424 0.3794597872809614 O
0.1335754228431364 0.3527015590749036 0.880645294849475 O
0.150904680730958 0.8777194065325588 0.3584966019157638 O
0.143674654707591 0.8701624669681277 0.8711840148804199 O
0.6496749421469407 0.3602687488472567 0.3664670984776994 O
0.6416811181815911 0.3633528402051536 0.8673075576195918 O
0.6393876241813912 0.8617796422214754 0.3709871610983371 O
0.6504664046708455 0.8789950552841485 0.8593094990373888 O
0.3520221834605712 0.348535830030599 0.3906066920889379 O
0.3565775395905542 0.3557124094765967 0.8800440263865948 O
0.3556830851984814 0.8719844557989039 0.3808814185385924 O
0.3627215172412586 0.8641955386133681 0.8756536426759377 O
0.8693138904983612 0.3603115482801099 0.3718814704031073 O
0.8661601202363929 0.3625092579331121 0.8686571711286983 O
0.8620411174502921 0.8604569471924606 0.3766907997559982 O
0.8700540130931586 0.8689635832614513 0.8677462388494458 O
