System                                  
   1.0000000000000000     
     5.4689199999999998    0.0226100000000000    8.3110300000000006
     2.5059700000000000    4.8610400000000000    8.3110300000000006
     0.0369400000000000    0.0226300000000000    9.9490300000000005
  Li              Co              O             
     6     8    16
Direct
     0.2492728959216617    0.7484448393805456    0.2485908956222097
     0.2508612062922618    0.7513082407286268    0.7515758549896783
     0.7484446596302167    0.2492734803336187    0.2485965822360003
     0.7513145851326772    0.2508622712340450    0.7515760153588179
     0.7511157747552566    0.7510944082006964    0.2513819089096518
     0.7488012781815884    0.7487729661416750    0.7488600128896569
     0.0020136541622107    0.0020205967023467    0.0002159808331701
     0.0016732929810363    0.0016681821188150    0.5004023329978250
     0.0009664836338720    0.4989192894599224    0.0000320373195707
     0.0014611662260800    0.4986026050515422    0.4999443518371227
     0.4989249081887430    0.0009608901995092    0.0000333603474271
     0.4985996350424065    0.0014678804072367    0.4999408212087498
     0.4980988583447114    0.4980945824525917    0.9996080131766772
     0.4982138608085455    0.4982093461389977    0.4997039512144463
     0.1273388055922587    0.1273323011032167    0.1408495329199244
     0.1276567812649304    0.1276740892098137    0.6385746672043645
     0.1253827685598659    0.6395618619271451    0.1285470634465342
     0.1271691601981605    0.6405658300134142    0.6270865090743506
     0.6395444181218164    0.1253876874798742    0.1285645054011718
     0.6405728601341586    0.1271646585586146    0.6270891140252646
     0.6298641683855992    0.6298625359665467    0.1294020875722897
     0.6304181901200988    0.6304158254832365    0.6264871380713222
     0.3723542664930539    0.3723769496986210    0.3614214778034815
     0.3725610820997647    0.3725580051159429    0.8592960993617377
     0.3729480790740513    0.8591392892927249    0.3730107252718788
     0.3739057290182469    0.8616558010692921    0.8711007687300839
     0.8591426412477373    0.3729470377287583    0.3730104170203877
     0.8616465512819562    0.3739036542077783    0.8711175323619881
     0.8697662421648137    0.8697569007401155    0.3731292674450848
     0.8699779487361279    0.8699764166038455    0.8708494060786228

  0.00000000E+00  0.00000000E+00  0.00000000E+00
  0.00000000E+00  0.00000000E+00  0.00000000E+00
  0.00000000E+00  0.00000000E+00  0.00000000E+00
  0.00000000E+00  0.00000000E+00  0.00000000E+00
  0.00000000E+00  0.00000000E+00  0.00000000E+00
  0.00000000E+00  0.00000000E+00  0.00000000E+00
  0.00000000E+00  0.00000000E+00  0.00000000E+00
  0.00000000E+00  0.00000000E+00  0.00000000E+00
  0.00000000E+00  0.00000000E+00  0.00000000E+00
  0.00000000E+00  0.00000000E+00  0.00000000E+00
  0.00000000E+00  0.00000000E+00  0.00000000E+00
  0.00000000E+00  0.00000000E+00  0.00000000E+00
  0.00000000E+00  0.00000000E+00  0.00000000E+00
  0.00000000E+00  0.00000000E+00  0.00000000E+00
  0.00000000E+00  0.00000000E+00  0.00000000E+00
  0.00000000E+00  0.00000000E+00  0.00000000E+00
  0.00000000E+00  0.00000000E+00  0.00000000E+00
  0.00000000E+00  0.00000000E+00  0.00000000E+00
  0.00000000E+00  0.00000000E+00  0.00000000E+00
  0.00000000E+00  0.00000000E+00  0.00000000E+00
  0.00000000E+00  0.00000000E+00  0.00000000E+00
  0.00000000E+00  0.00000000E+00  0.00000000E+00
  0.00000000E+00  0.00000000E+00  0.00000000E+00
  0.00000000E+00  0.00000000E+00  0.00000000E+00
  0.00000000E+00  0.00000000E+00  0.00000000E+00
  0.00000000E+00  0.00000000E+00  0.00000000E+00
  0.00000000E+00  0.00000000E+00  0.00000000E+00
  0.00000000E+00  0.00000000E+00  0.00000000E+00
  0.00000000E+00  0.00000000E+00  0.00000000E+00
  0.00000000E+00  0.00000000E+00  0.00000000E+00
