System                                  
   1.0000000000000000     
    11.4009387477082118   -0.1270461853059910   -0.2333408100202317
    -5.7172201767325017    9.9979219821615430    0.0770862630575056
     0.0362140596339119    0.0921245990614989    9.2636120848112711
  Li              Mn              Co              Ni              O             
     2    12     8    12    64
Direct
     0.3314839289572502    0.6630077487690011    0.4048635400652451
     0.8333383726093956    0.1665184135902536    0.4039107748189995
     0.0848764666290577    0.4141289555457603    0.2108937254148288
     0.0859752364178418    0.9146978669686288    0.2115059797659319
     0.5853174853087543    0.4190515473211337    0.2127656169368448
     0.5846096420970972    0.9193112370591051    0.2125017948407949
     0.0871706527373381    0.1667059044641348    0.2119338710373052
     0.0842382565331466    0.6666393551223533    0.2113840879514338
     0.5839176556493456    0.1717575375801210    0.2085122884324771
     0.5855415161145858    0.6713405741411883    0.2086736450143351
     0.1653224401470637    0.0812151195438260    0.7115030028798170
     0.1658789746758142    0.5837786106377644    0.7128375941854154
     0.6678613960067489    0.0835045562949822    0.7132610614833651
     0.6658038067800940    0.5828096586272989    0.7081576591007610
     0.1693895699810782    0.3306736337048971    0.4851426405489567
     0.1641607194465194    0.8296434044242943    0.4856305026345972
     0.6659434737524316    0.3381294813710079    0.4843776847223267
     0.6644350304543083    0.8332742282779736    0.4877252530418480
     0.3403132611240693    0.1716115686495589    0.9778003299302221
     0.3392850291437137    0.6736437906121087    0.9782939363248557
     0.8404268679525626    0.1645965458872862    0.9794262460960155
     0.8385583014812990    0.6677807968220976    0.9777948332226014
     0.4147798581640932    0.0844487484480633    0.7107026703096729
     0.4175814740588166    0.5873502552463149    0.7115392625724999
     0.9146032360521944    0.0801484788772739    0.7165279814541291
     0.9135077974558845    0.5847232108160653    0.7102559491128360
     0.3328273280856790    0.4164754477671470    0.2072036299385416
     0.3322058868831615    0.9162099370216028    0.2090840123617159
     0.8328207940285441    0.4174767883322351    0.2062993496812257
     0.8323137584461405    0.9167774612517330    0.2094376185888836
     0.4127037918865037    0.3298387596971527    0.7086939167522527
     0.4147595530920521    0.8338599150159771    0.7147224006019588
     0.9196397143712134    0.3320603075334653    0.7132053972132293
     0.9150792676088957    0.8302307581051854    0.7115928507212647
     0.1718870102542377    0.0851215481822640    0.1037980574341367
     0.1711637830087972    0.5848793305489649    0.1061087131769478
     0.6716529567853237    0.0876262381479277    0.1063342888884427
     0.6710572505463419    0.5879542330720852    0.1037728920361454
     0.4186829731045950    0.3295182731123366    0.0944118846835177
     0.4174043720311785    0.8323723714235733    0.0998538924288882
     0.9196887793840703    0.3254608917010697    0.0956021649056509
     0.9174759184455132    0.8234291738880004    0.0951752892033702
     0.3328112810087532    0.1666862941363462    0.6100761510971495
     0.3352264903056780    0.6726498066424240    0.6121549382444267
     0.8360625323541707    0.1646282627909385    0.6124505566482696
     0.8349179396349465    0.6694432933930972    0.6090639219371482
     0.2647173742697289    0.0243309653465074    0.8420802957694996
     0.2634204688513885    0.5279871772199396    0.8437344272117245
     0.7605815838654912    0.0184650404535119    0.8410259452994749
     0.7611910981807058    0.5224421062978136    0.8382415078005243
     0.2620463829622084    0.2377994800896986    0.8387784652618936
     0.2624939580370424    0.7421104866633094    0.8396244220941851
     0.7652873164571288    0.2351566519765600    0.8431075290804804
     0.7638233060697348    0.7381131428468481    0.8387540118606674
     0.3206301059335572    0.4075522019465503    0.5976489851968715
     0.3344496787762407    0.9166978923710258    0.5955028724091340
     0.8205201079182635    0.4154496600536119    0.5991904640847180
     0.8373940408553269    0.9187706936710426    0.5957026904172074
     0.2352630936513882    0.2557016209271750    0.3462878854029435
     0.2320795779755307    0.7514388597652765    0.3493795122792275
     0.7376381222900871    0.2614272716124773    0.3425494196731728
     0.7358956898092136    0.7622721550736001    0.3438313635113885
     0.0202046610015410    0.2573566106721484    0.3386329609771587
     0.0211461655138920    0.7583122466490598    0.3381549102932507
     0.5209560392583520    0.2615640797205970    0.3372973154690306
     0.5181528331961665    0.7595848940499739    0.3382708394592464
     0.0790322680639001    0.1602939025596008    0.6010327336486916
     0.0807476432934037    0.6657184267068592    0.5999917963851985
     0.5888311928140659    0.1752037233108525    0.6025452748304798
     0.5853766653627295    0.6707578466052214    0.5998063712330768
     0.9958889545125619    0.9940308817856714    0.8126498556180083
     0.9969311654290043    0.5002904896975439    0.8093069641913533
     0.4969905272216936    0.9991727295879559    0.8099981307756979
     0.4963278512574441    0.4962778536344392    0.8061478416184796
     1.0002495493888890    0.9963919865852943    0.3077516023080090
     0.9978732267527773    0.4956986807729571    0.3073216968532267
     0.4983396636912303    0.0017820572832633    0.3078847009353933
     0.4986697935766696    0.5008164029452556    0.3066569233291327
     0.1683488048278453    0.3335732663970155    0.1086692312755530
     0.1685969954712351    0.8330525103928720    0.1084662169041908
     0.6677699668272840    0.3386101900120584    0.1072222328385314
     0.6672787840207174    0.8384491569114328    0.1089310618031991
     0.4796484681695597    0.2418891381075903    0.8391174407351074
     0.4801041959373529    0.7520490080201934    0.8463596342820892
     0.9802825004784533    0.2270053253296630    0.8484712440999439
     0.9793653775289500    0.7381925459581463    0.8383381323307907
     0.0837089027612136    0.4190862410898563    0.6017816580614206
     0.0826389070214977    0.9154049246044089    0.6033831683560044
     0.5781884558042112    0.4191545581414266    0.5949405063603272
     0.5802835450488727    0.9172640463945853    0.6039100518913912
     0.2356512454617971    0.4766679503476760    0.3474925714583821
     0.2356440061781564    0.9727337047289941    0.3459227913215102
     0.7325322851876451    0.4767357210349370    0.3497447862359431
     0.7318213578657679    0.9791159211824484    0.3517520315162112
     0.4188262630940396    0.0963102398743040    0.0951993178996246
     0.4183867345500245    0.5945308199377951    0.0962458421656926
     0.9174205604669154    0.0866431144348695    0.1005451370086681
     0.9181469919353489    0.5889866684163275    0.0959366696013502

  0.00000000E+00  0.00000000E+00  0.00000000E+00
  0.00000000E+00  0.00000000E+00  0.00000000E+00
  0.00000000E+00  0.00000000E+00  0.00000000E+00
  0.00000000E+00  0.00000000E+00  0.00000000E+00
  0.00000000E+00  0.00000000E+00  0.00000000E+00
  0.00000000E+00  0.00000000E+00  0.00000000E+00
  0.00000000E+00  0.00000000E+00  0.00000000E+00
  0.00000000E+00  0.00000000E+00  0.00000000E+00
  0.00000000E+00  0.00000000E+00  0.00000000E+00
  0.00000000E+00  0.00000000E+00  0.00000000E+00
  0.00000000E+00  0.00000000E+00  0.00000000E+00
  0.00000000E+00  0.00000000E+00  0.00000000E+00
  0.00000000E+00  0.00000000E+00  0.00000000E+00
  0.00000000E+00  0.00000000E+00  0.00000000E+00
  0.00000000E+00  0.00000000E+00  0.00000000E+00
  0.00000000E+00  0.00000000E+00  0.00000000E+00
  0.00000000E+00  0.00000000E+00  0.00000000E+00
  0.00000000E+00  0.00000000E+00  0.00000000E+00
  0.00000000E+00  0.00000000E+00  0.00000000E+00
  0.00000000E+00  0.00000000E+00  0.00000000E+00
  0.00000000E+00  0.00000000E+00  0.00000000E+00
  0.00000000E+00  0.00000000E+00  0.00000000E+00
  0.00000000E+00  0.00000000E+00  0.00000000E+00
  0.00000000E+00  0.00000000E+00  0.00000000E+00
  0.00000000E+00  0.00000000E+00  0.00000000E+00
  0.00000000E+00  0.00000000E+00  0.00000000E+00
  0.00000000E+00  0.00000000E+00  0.00000000E+00
  0.00000000E+00  0.00000000E+00  0.00000000E+00
  0.00000000E+00  0.00000000E+00  0.00000000E+00
  0.00000000E+00  0.00000000E+00  0.00000000E+00
  0.00000000E+00  0.00000000E+00  0.00000000E+00
  0.00000000E+00  0.00000000E+00  0.00000000E+00
  0.00000000E+00  0.00000000E+00  0.00000000E+00
  0.00000000E+00  0.00000000E+00  0.00000000E+00
  0.00000000E+00  0.00000000E+00  0.00000000E+00
  0.00000000E+00  0.00000000E+00  0.00000000E+00
  0.00000000E+00  0.00000000E+00  0.00000000E+00
  0.00000000E+00  0.00000000E+00  0.00000000E+00
  0.00000000E+00  0.00000000E+00  0.00000000E+00
  0.00000000E+00  0.00000000E+00  0.00000000E+00
  0.00000000E+00  0.00000000E+00  0.00000000E+00
  0.00000000E+00  0.00000000E+00  0.00000000E+00
  0.00000000E+00  0.00000000E+00  0.00000000E+00
  0.00000000E+00  0.00000000E+00  0.00000000E+00
  0.00000000E+00  0.00000000E+00  0.00000000E+00
  0.00000000E+00  0.00000000E+00  0.00000000E+00
  0.00000000E+00  0.00000000E+00  0.00000000E+00
  0.00000000E+00  0.00000000E+00  0.00000000E+00
  0.00000000E+00  0.00000000E+00  0.00000000E+00
  0.00000000E+00  0.00000000E+00  0.00000000E+00
  0.00000000E+00  0.00000000E+00  0.00000000E+00
  0.00000000E+00  0.00000000E+00  0.00000000E+00
  0.00000000E+00  0.00000000E+00  0.00000000E+00
  0.00000000E+00  0.00000000E+00  0.00000000E+00
  0.00000000E+00  0.00000000E+00  0.00000000E+00
  0.00000000E+00  0.00000000E+00  0.00000000E+00
  0.00000000E+00  0.00000000E+00  0.00000000E+00
  0.00000000E+00  0.00000000E+00  0.00000000E+00
  0.00000000E+00  0.00000000E+00  0.00000000E+00
  0.00000000E+00  0.00000000E+00  0.00000000E+00
  0.00000000E+00  0.00000000E+00  0.00000000E+00
  0.00000000E+00  0.00000000E+00  0.00000000E+00
  0.00000000E+00  0.00000000E+00  0.00000000E+00
  0.00000000E+00  0.00000000E+00  0.00000000E+00
  0.00000000E+00  0.00000000E+00  0.00000000E+00
  0.00000000E+00  0.00000000E+00  0.00000000E+00
  0.00000000E+00  0.00000000E+00  0.00000000E+00
  0.00000000E+00  0.00000000E+00  0.00000000E+00
  0.00000000E+00  0.00000000E+00  0.00000000E+00
  0.00000000E+00  0.00000000E+00  0.00000000E+00
  0.00000000E+00  0.00000000E+00  0.00000000E+00
  0.00000000E+00  0.00000000E+00  0.00000000E+00
  0.00000000E+00  0.00000000E+00  0.00000000E+00
  0.00000000E+00  0.00000000E+00  0.00000000E+00
  0.00000000E+00  0.00000000E+00  0.00000000E+00
  0.00000000E+00  0.00000000E+00  0.00000000E+00
  0.00000000E+00  0.00000000E+00  0.00000000E+00
  0.00000000E+00  0.00000000E+00  0.00000000E+00
  0.00000000E+00  0.00000000E+00  0.00000000E+00
  0.00000000E+00  0.00000000E+00  0.00000000E+00
  0.00000000E+00  0.00000000E+00  0.00000000E+00
  0.00000000E+00  0.00000000E+00  0.00000000E+00
  0.00000000E+00  0.00000000E+00  0.00000000E+00
  0.00000000E+00  0.00000000E+00  0.00000000E+00
  0.00000000E+00  0.00000000E+00  0.00000000E+00
  0.00000000E+00  0.00000000E+00  0.00000000E+00
  0.00000000E+00  0.00000000E+00  0.00000000E+00
  0.00000000E+00  0.00000000E+00  0.00000000E+00
  0.00000000E+00  0.00000000E+00  0.00000000E+00
  0.00000000E+00  0.00000000E+00  0.00000000E+00
  0.00000000E+00  0.00000000E+00  0.00000000E+00
  0.00000000E+00  0.00000000E+00  0.00000000E+00
  0.00000000E+00  0.00000000E+00  0.00000000E+00
  0.00000000E+00  0.00000000E+00  0.00000000E+00
  0.00000000E+00  0.00000000E+00  0.00000000E+00
  0.00000000E+00  0.00000000E+00  0.00000000E+00
  0.00000000E+00  0.00000000E+00  0.00000000E+00
  0.00000000E+00  0.00000000E+00  0.00000000E+00
