System
1.0
10.362654199567075 0.6680397148495248 5.890074447848777
3.510047580411978 10.073208645045039 5.577995800114263
-0.2770176937874708 0.4281704396772118 11.509736570530237
Li Mn O 
7 32 64 
direct
0.5681933488401749 0.5732756173097554 0.0558964874457295 Li
0.4260413194678273 0.4280937909992487 0.946935009071567 Li
0.4370538463377633 0.9284847193450111 0.4454903854935202 Li
0.4392886380679401 0.9323276408036472 0.9394809883966524 Li
0.9336492411530691 0.433726872315585 0.4405901924461574 Li
0.9334168595680516 0.4410861000148782 0.9346787030470107 Li
0.9361090005468236 0.9369796182300432 0.9378992339443875 Li
0.2429457206034413 0.2412443894949009 0.0063052094525307 Mn
0.2413743631399756 0.2375332145820064 0.5080720419035268 Mn
0.2507097096054197 0.7459891013648187 0.0053226726955955 Mn
0.2501395796865392 0.7500624755440618 0.5029241442202607 Mn
0.7463577584218647 0.2552008594681251 0.9973839771280636 Mn
0.7494559096361182 0.2510824210878572 0.4963808845821743 Mn
0.7584848947846494 0.7580326971084838 0.9944841785660175 Mn
0.758020245225227 0.756382970680854 0.4966918454384555 Mn
0.2483702921901112 0.9953402318230429 0.2557985292288187 Mn
0.2435367535397186 0.9938767490622605 0.7573591866915177 Mn
0.2447447178505031 0.4941513337134967 0.260622094835024 Mn
0.2453510736392762 0.4957578897558705 0.751550420169105 Mn
0.7532899097442388 0.0065117402777117 0.246642305761615 Mn
0.7515627410589267 0.0061648914653576 0.7421636888452736 Mn
0.7560013108294065 0.5058130844934394 0.2439372154296708 Mn
0.7527420407047247 0.5057307161618221 0.7423550975283981 Mn
0.9981605213148282 0.247331256208625 0.2516777500301719 Mn
0.9952553897089885 0.2435055509409535 0.7521077668174204 Mn
0.0044064379540425 0.7521993715094534 0.2505805907144573 Mn
0.0043983163803314 0.7530007535358557 0.7452685923065917 Mn
0.4958426910601921 0.247468077253405 0.2561715068223768 Mn
0.4955655308425046 0.2465562922984749 0.7481061949036444 Mn
0.5061604165066387 0.7520341117150421 0.249172490750851 Mn
0.5039687978718635 0.7527051147664112 0.7482476144143646 Mn
0.2440946905787374 0.2394703399296447 0.2594339312741822 Mn
0.2402541161349644 0.2397881864159886 0.7615459797793417 Mn
0.2520664919143347 0.7483318159682727 0.2545268612500811 Mn
0.2485617376317232 0.7452291098461854 0.75392109056357 Mn
0.7511784135300441 0.2558551002133624 0.2449270508423215 Mn
0.7467616993653777 0.2505597540227189 0.7457991931197897 Mn
0.7581613208426004 0.7579836357466198 0.2386896383852593 Mn
0.7558280509993454 0.7595167779014765 0.7395133814997141 Mn
0.1325896687356336 0.1286416831568367 0.3548345605669901 O
0.1260241631571344 0.1247878146283474 0.86205937798516 O
0.1382933761461045 0.6417389694309583 0.3508835758679592 O
0.1368649229072015 0.638243016706609 0.8491564897603486 O
0.645314300622237 0.1397411503157528 0.3445546400934557 O
0.6388467199038856 0.1370685563709591 0.8441100809154677 O
0.6483791094180654 0.6472200195099217 0.3413593571294909 O
0.6401361386560148 0.6474364169587874 0.8487420704372508 O
0.1246710764151223 0.3430352011358397 0.138973426065843 O
0.1187541095877601 0.3396700325007315 0.6425753868803933 O
0.127157036217069 0.8551387736350303 0.1344020143906652 O
0.1265913375406396 0.8518522382506841 0.637473318087444 O
0.6418012950708647 0.3664906699767405 0.116870499413222 O
0.6418617937126291 0.3554667621928097 0.6212503533941024 O
0.6477557709840235 0.8616767694111233 0.1185890311098046 O
0.6462215778996595 0.8620290988374241 0.6186958269982087 O
0.3462769722954381 0.1207033710944074 0.1427978156352235 O
0.3412964172748481 0.1162920680390243 0.6489581435319232 O
0.3609942939042939 0.639868863985804 0.128854366804524 O
0.3542349292013655 0.6412206898777619 0.6315253028566663 O
0.8561878619036261 0.1306208906999194 0.1302474256478773 O
0.851612338480533 0.1272516349847274 0.6350525115822941 O
0.8639561742148189 0.6488836753457076 0.1194746358971577 O
0.8594253897176337 0.6441799505263385 0.6265081026170316 O
0.1298407389501114 0.1289316290532413 0.1332201616744124 O
0.1268579430421085 0.1259650370066413 0.6379248295127506 O
0.1364181929661691 0.6403772334946932 0.1300078583014394 O
0.1337477142943041 0.6435137586627098 0.6244706338980563 O
0.6395234124743787 0.1433449687650779 0.123126090781714 O
0.6415713195662397 0.1382862808095522 0.6176406303645721 O
0.6467334869526801 0.643889285557966 0.1137378987499254 O
0.6454715953114698 0.6458283001617101 0.6165042313472767 O
0.3547303902479402 0.355249951374663 0.1573868074918813 O
0.3475758218687103 0.3507023645018124 0.6607646683746057 O
0.3641986663070778 0.8656323929861297 0.1496862573423864 O
0.358758784070517 0.864573442798663 0.6534020598676382 O
0.8696891928931874 0.3639191994831443 0.1420373056628594 O
0.8664296707650587 0.3563131724630464 0.6457378399824576 O
0.8700674463336474 0.8720833241869018 0.1433262226763226 O
0.8664588042631781 0.8697830662559352 0.6456886147473544 O
0.3545943226322855 0.1305419728448461 0.3835273619513982 O
0.3522924445412566 0.1323731474291057 0.8838629326345605 O
0.3607663083456381 0.6476758868327332 0.3752589968520091 O
0.3593356235449721 0.6388743142252847 0.8812208544998048 O
0.873823184958131 0.1519804618908088 0.3595071914167485 O
0.8687037914065789 0.1456130823492317 0.8691662584914639 O
0.8817958848936696 0.6496007861426009 0.3615515434722574 O
0.8785905952961461 0.65163027009732 0.8614636603572953 O
0.1346582845633396 0.35005010813961 0.3805186163319746 O
0.1324440841482089 0.3503661409231021 0.8821848733267804 O
0.1500663652797995 0.8733812189593505 0.3626006629489332 O
0.1434882457043997 0.8691637937753957 0.8707802648826191 O
0.6495036852420568 0.3639725322625295 0.3634864668286446 O
0.6403574207033113 0.3640783711168921 0.8687913113688265 O
0.6521400104856573 0.881177778481287 0.3568599648609955 O
0.6495132050584369 0.8807455516683742 0.8580007215817185 O
0.3516913534043735 0.3477508579678778 0.3894414399739648 O
0.3544728370902228 0.3535614951450571 0.8834003509753635 O
0.3610853443484588 0.8664537202295822 0.3785749719607109 O
0.3592390698726174 0.8631758818462 0.8798719678737215 O
0.8703828865710544 0.3616026606622435 0.3704528198810494 O
0.8659633668726953 0.3624941910410183 0.8696253381686421 O
0.8699319063593772 0.8675347187477058 0.3670846203337762 O
0.8698073772659208 0.8700193500607372 0.8664648176720121 O
