System                                  
   1.0000000000000000     
     0.0000097961307196    4.6013380342450034    3.9095278033645311
     4.6013360961454737    0.0000098069001658    3.9095277660618915
     4.6013402174849247    4.6013421233063863    0.0000067016547387
  Li              Sn              Ge              S             
     2     1     1     4
Direct
     0.2499998575079055    0.2500000243024326    0.2500000576533929
     0.7499998042180277    0.7500000557935779    0.7500000952818071
    -0.0000000159641865    0.0000000458791218   -0.0000000064742156
     0.4999998410855281    0.5000000794634293    0.5000000013857200
     0.8626084377693031    0.4619963265568802    0.1373917029735227
     0.1373918041288051    0.5380036216199251    0.4619964036932264
     0.4619964705469840    0.8626082048407143    0.5380036478497577
     0.5380038007076331    0.1373916415439187    0.8626080976367886

  0.00000000E+00  0.00000000E+00  0.00000000E+00
  0.00000000E+00  0.00000000E+00  0.00000000E+00
  0.00000000E+00  0.00000000E+00  0.00000000E+00
  0.00000000E+00  0.00000000E+00  0.00000000E+00
  0.00000000E+00  0.00000000E+00  0.00000000E+00
  0.00000000E+00  0.00000000E+00  0.00000000E+00
  0.00000000E+00  0.00000000E+00  0.00000000E+00
  0.00000000E+00  0.00000000E+00  0.00000000E+00
