System
1.0
0.0 4.591284009905093 3.9012252246497634
4.591284009905093 -0.0 3.9012252246497634
4.591284009905093 4.591284009905093 0.0
Li Sn Ge S 
2 1 1 4 
direct
0.25 0.25 0.24999999999999997 Li
0.7500000000000001 0.75 0.7499999999999997 Li
0.0 0.0 0.0 Sn
0.5 0.5 0.49999999999999994 Ge
0.8637456727452866 0.46159763412195953 0.13625432725471337 S
0.13625432725471337 0.5384023658780406 0.4615976341219595 S
0.4615976341219595 0.8637456727452867 0.5384023658780402 S
0.5384023658780405 0.1362543272547135 0.8637456727452866 S
