Mn12O24                                 
1.0
       11.3977079391         0.0000000000         0.0000000000
       -5.7095232010         9.8891842711         0.0000000000
        0.0000000000         0.0000000000        15.3547420502
   Mn    O   Ni   Na
   36   96   12    2
Direct
     0.085069001         0.168504998         0.318738014
     0.085069001         0.668505013         0.318738014
     0.585069001         0.168504998         0.318738014
     0.585069001         0.668505013         0.318738014
     0.334022999         0.168601006         0.318814993
     0.334022999         0.668600976         0.318814993
     0.834022999         0.168601006         0.318814993
     0.834022999         0.668600976         0.318814993
     0.334012985         0.417587996         0.318794012
     0.334012985         0.917587996         0.318794012
     0.834012985         0.417587996         0.318794012
     0.834012985         0.917587996         0.318794012
     0.165687993         0.082800999         0.683390975
     0.165687993         0.582800984         0.683390975
     0.665687978         0.082800999         0.683390975
     0.665687978         0.582800984         0.683390975
     0.165701002         0.331903011         0.683058023
     0.165701002         0.831902981         0.683058023
     0.665700972         0.331903011         0.683058023
     0.665700972         0.831902981         0.683058023
     0.415003002         0.331995994         0.683331013
     0.415003002         0.831996024         0.683331013
     0.915003002         0.331995994         0.683331013
     0.915003002         0.831996024         0.683331013
     0.499776006         0.499058008         0.999921978
     0.499776006         0.999058008         0.999921978
     0.999776006         0.499058008         0.999921978
     0.999776006         0.999058008         0.999921978
     0.499789000         0.249038994         0.000033000
     0.499789000         0.749038994         0.000033000
     0.999789000         0.249038994         0.000033000
     0.999789000         0.749038994         0.000033000
     0.249808997         0.499038011         0.999975979
     0.249808997         0.999037981         0.999975979
     0.749809027         0.499038011         0.999975979
     0.749809027         0.999037981         0.999975979
     0.000082000         0.495049000         0.616475999
     0.000082000         0.995049000         0.616475999
     0.500082016         0.495049000         0.616475999
     0.500082016         0.995049000         0.616475999
     0.000191000         0.252328008         0.616243005
     0.000191000         0.752327979         0.616243005
     0.500190973         0.252328008         0.616243005
     0.500190973         0.752327979         0.616243005
     0.246340007         0.496690005         0.617646992
     0.246340007         0.996689975         0.617646992
     0.746339977         0.496690005         0.617646992
     0.746339977         0.996689975         0.617646992
     0.247381002         0.246882007         0.617816985
     0.247381002         0.746882021         0.617816985
     0.747380972         0.246882007         0.617816985
     0.747380972         0.746882021         0.617816985
     0.003308000         0.002433000         0.382539988
     0.003308000         0.502433002         0.382539988
     0.503307998         0.002433000         0.382539988
     0.503307998         0.502433002         0.382539988
     0.003214000         0.254913986         0.382555991
     0.003214000         0.754913986         0.382555991
     0.503214002         0.254913986         0.382555991
     0.503214002         0.754913986         0.382555991
     0.249715999         0.002109000         0.382295996
     0.249715999         0.502108991         0.382295996
     0.749715984         0.002109000         0.382295996
     0.749715984         0.502108991         0.382295996
     0.252822995         0.253757000         0.383955985
     0.252822995         0.753757000         0.383955985
     0.752822995         0.253757000         0.383955985
     0.752822995         0.753757000         0.383955985
     0.167554006         0.085588999         0.255553007
     0.167554006         0.585588992         0.255553007
     0.667554021         0.085588999         0.255553007
     0.667554021         0.585588992         0.255553007
     0.167473003         0.331862986         0.255513012
     0.167473003         0.831862986         0.255513012
     0.667473018         0.331862986         0.255513012
     0.667473018         0.831862986         0.255513012
     0.416204005         0.083098002         0.256590009
     0.416204005         0.583097994         0.256590009
     0.916203976         0.083098002         0.256590009
     0.916203976         0.583097994         0.256590009
     0.414759994         0.332336009         0.255782008
     0.414759994         0.832336009         0.255782008
     0.914759994         0.332336009         0.255782008
     0.914759994         0.832336009         0.255782008
     0.168473005         0.085383996         0.062505998
     0.168473005         0.585384011         0.062505998
     0.668473005         0.085383996         0.062505998
     0.668473005         0.585384011         0.062505998
     0.168516994         0.333835989         0.062368002
     0.168516994         0.833836019         0.062368002
     0.668516994         0.333835989         0.062368002
     0.668516994         0.833836019         0.062368002
     0.418080002         0.084168002         0.063157998
     0.418080002         0.584168017         0.063157998
     0.918079972         0.084168002         0.063157998
     0.918079972         0.584168017         0.063157998
     0.416961014         0.333927989         0.062527999
     0.416961014         0.833927989         0.062527999
     0.916961014         0.333927989         0.062527999
     0.916961014         0.833927989         0.062527999
     0.082722999         0.164276004         0.937433004
     0.082722999         0.664276004         0.937433004
     0.582723022         0.164276004         0.937433004
     0.582723022         0.664276004         0.937433004
     0.081459999         0.413747013         0.936933994
     0.081459999         0.913747013         0.936933994
     0.581459999         0.413747013         0.936933994
     0.581459999         0.913747013         0.936933994
     0.331012994         0.164306000         0.937696993
     0.331012994         0.664305985         0.937696993
     0.831013024         0.164306000         0.937696993
     0.831013024         0.664305985         0.937696993
     0.331003010         0.412602991         0.937357008
     0.331003010         0.912603021         0.937357008
     0.831003010         0.412602991         0.937357008
     0.831003010         0.912603021         0.937357008
     0.080210000         0.165813997         0.742959976
     0.080210000         0.665813982         0.742959976
     0.580209970         0.165813997         0.742959976
     0.580209970         0.665813982         0.742959976
     0.083977997         0.417521000         0.745845020
     0.083977997         0.917521000         0.745845020
     0.583977997         0.417521000         0.745845020
     0.583977997         0.917521000         0.745845020
     0.333770990         0.167446002         0.743911028
     0.333770990         0.667446017         0.743911028
     0.833770990         0.167446002         0.743911028
     0.833770990         0.667446017         0.743911028
     0.333655000         0.417383999         0.743785977
     0.333655000         0.917384028         0.743785977
     0.833655000         0.417383999         0.743785977
     0.833655000         0.917384028         0.743785977
     0.084316999         0.418155015         0.315508008
     0.084316999         0.918155015         0.315508008
     0.584317029         0.418155015         0.315508008
     0.584317029         0.918155015         0.315508008
     0.415782988         0.082473002         0.678493977
     0.415782988         0.582472980         0.678493977
     0.915782988         0.082473002         0.678493977
     0.915782988         0.582472980         0.678493977
     0.249791995         0.249075994         0.000043000
     0.249791995         0.749076009         0.000043000
     0.749791980         0.249075994         0.000043000
     0.749791980         0.749076009         0.000043000
     0.084253997         0.418074995         0.498457015
     0.584254026         0.418074995         0.498457015
