System                                  
   1.0000000000000000     
     5.4564990613074666    0.0038396785320578    8.3640888514443716
     2.5164667546670834    4.7610517752970631    8.3423865679756108
     0.0790417920200705    0.0031050136807675    9.9879092830014766
  Li              Co              O             
     3     8    16
Direct
     0.2512470799099539    0.2482052779689767    0.2500646129656179
     0.2518536447523481    0.2480794870122959    0.7506928364078833
     0.7496282696025475    0.2503852095773796    0.2506728304100456
     0.9985025658245257    0.9957823032587111    0.9977909157471316
     0.9981048474376870    1.0002573649989266    0.4998030371876677
     0.0003143976656913    0.5039755934363557    0.0002622072076836
     0.0001798786377827    0.4994735660457428    0.5020032171555820
     0.4998986609838138    1.0002812797652754    0.9982895013159943
     0.4997945144166695    0.9967713776449829    0.4990687417300225
     0.5028262061579754    0.4995719987745574   -0.0005440107751776
     0.5014723419438054    0.5038757224368035    0.5016105106869713
     0.1286503369650596    0.1377491562686011    0.1275188221432588
     0.1342585338634402    0.1334573731969026    0.6263921098845545
     0.1379114841818537    0.6232218258222401    0.1375604919300007
     0.1419330875696150    0.6220369359726682    0.6351413414230601
     0.6271875275765296    0.1328571980864907    0.1341800535881895
     0.6261423245137289    0.1401226727669649    0.6267706125281095
     0.6347446638262514    0.6227123948456663    0.1416417234952645
     0.6384706631751147    0.6259878572627974    0.6370480420502169
     0.3715121245983452    0.3634460779640659    0.3714839040926492
     0.3669274219997307    0.3673185361433473    0.8714779124180704
     0.3618106408560280    0.8797263795193727    0.3611602173217455
     0.3603417891720046    0.8774027632285804    0.8629648746194798
     0.8712192361550951    0.3680270614138673    0.3663876106959669
     0.8749025774299753    0.3578175429509598    0.8736599599410155
     0.8640493487068099    0.8768129681547281    0.3597558248497118
     0.8623739161846666    0.8727332096710466    0.8633843784698372

  0.00000000E+00  0.00000000E+00  0.00000000E+00
  0.00000000E+00  0.00000000E+00  0.00000000E+00
  0.00000000E+00  0.00000000E+00  0.00000000E+00
  0.00000000E+00  0.00000000E+00  0.00000000E+00
  0.00000000E+00  0.00000000E+00  0.00000000E+00
  0.00000000E+00  0.00000000E+00  0.00000000E+00
  0.00000000E+00  0.00000000E+00  0.00000000E+00
  0.00000000E+00  0.00000000E+00  0.00000000E+00
  0.00000000E+00  0.00000000E+00  0.00000000E+00
  0.00000000E+00  0.00000000E+00  0.00000000E+00
  0.00000000E+00  0.00000000E+00  0.00000000E+00
  0.00000000E+00  0.00000000E+00  0.00000000E+00
  0.00000000E+00  0.00000000E+00  0.00000000E+00
  0.00000000E+00  0.00000000E+00  0.00000000E+00
  0.00000000E+00  0.00000000E+00  0.00000000E+00
  0.00000000E+00  0.00000000E+00  0.00000000E+00
  0.00000000E+00  0.00000000E+00  0.00000000E+00
  0.00000000E+00  0.00000000E+00  0.00000000E+00
  0.00000000E+00  0.00000000E+00  0.00000000E+00
  0.00000000E+00  0.00000000E+00  0.00000000E+00
  0.00000000E+00  0.00000000E+00  0.00000000E+00
  0.00000000E+00  0.00000000E+00  0.00000000E+00
  0.00000000E+00  0.00000000E+00  0.00000000E+00
  0.00000000E+00  0.00000000E+00  0.00000000E+00
  0.00000000E+00  0.00000000E+00  0.00000000E+00
  0.00000000E+00  0.00000000E+00  0.00000000E+00
  0.00000000E+00  0.00000000E+00  0.00000000E+00
