System                                  
   1.0000000000000000     
     5.4360796006163952    0.0291978352553374    8.3175292583054041
     2.4966120408164532    4.8282321846608864    8.3173722342790573
     0.0488265835005110    0.0298672948784111    9.9505212957800033
  Li              Co              O             
     6     8    16
Direct
     0.2525958553586070    0.2473116870744001    0.2493212817626095
     0.2525223015838635    0.2451580108722617    0.7528677261694123
     0.7500157139333965    0.2502966888186997    0.2513299307137531
     0.7486521244490004    0.2489392753211581    0.7519763713970823
     0.7470847967619988    0.7524344206358429    0.2497180494113785
     0.7449678875744453    0.7523612259581305    0.7532316619173244
     0.0014553403481987    0.9992761751736716    0.9992322433590141
     0.0008766040394529    0.9990116763922549    0.5000523985766360
     0.0018178502217502    0.5016764730704699    1.0005613761086209
     0.0022807242436912    0.5022746152457114    0.4996151959105633
     0.4983494505001306    0.9981494761897527    0.9996989328412292
     0.4983417676084988    0.9983183559931257    0.4990316582761577
     0.4992867760653699    0.5014386240948600    0.9992327396598082
     0.4988965054482513    0.5009457834926170    0.5001514549580481
     0.1268169999508178    0.1400570576618411    0.1274106438691739
     0.1226527179506227    0.1439135409188808    0.6269482414943850
     0.1268682977021918    0.6268460291478142    0.1411099007901208
     0.1277717313527686    0.6269383557525878    0.6408096787398097
     0.6306966698289148    0.1305063098459621    0.1264107527028892
     0.6294060906633792    0.1300923696247619    0.6290461074785770
     0.6391888783838398    0.6259330392889073    0.1288158340516465
     0.6439198570219651    0.6226376608066047    0.6269642755129754
     0.3708936064257551    0.3643126513467806    0.3709842726693292
     0.3745990497673840    0.3601373279772285    0.8714096291453662
     0.3727944860558836    0.8721226454215019    0.3597609659155229
     0.3724922753500570    0.8725810759458642    0.8608206446071256
     0.8696847152158307    0.3706495027945559    0.3709320616536397
     0.8712660448907547    0.3712382833092938    0.8688642607296221
     0.8643177575694334    0.8708787234313362    0.3710007708162340
     0.8594032836818652    0.8734476227228205    0.8727672350808794

  0.00000000E+00  0.00000000E+00  0.00000000E+00
  0.00000000E+00  0.00000000E+00  0.00000000E+00
  0.00000000E+00  0.00000000E+00  0.00000000E+00
  0.00000000E+00  0.00000000E+00  0.00000000E+00
  0.00000000E+00  0.00000000E+00  0.00000000E+00
  0.00000000E+00  0.00000000E+00  0.00000000E+00
  0.00000000E+00  0.00000000E+00  0.00000000E+00
  0.00000000E+00  0.00000000E+00  0.00000000E+00
  0.00000000E+00  0.00000000E+00  0.00000000E+00
  0.00000000E+00  0.00000000E+00  0.00000000E+00
  0.00000000E+00  0.00000000E+00  0.00000000E+00
  0.00000000E+00  0.00000000E+00  0.00000000E+00
  0.00000000E+00  0.00000000E+00  0.00000000E+00
  0.00000000E+00  0.00000000E+00  0.00000000E+00
  0.00000000E+00  0.00000000E+00  0.00000000E+00
  0.00000000E+00  0.00000000E+00  0.00000000E+00
  0.00000000E+00  0.00000000E+00  0.00000000E+00
  0.00000000E+00  0.00000000E+00  0.00000000E+00
  0.00000000E+00  0.00000000E+00  0.00000000E+00
  0.00000000E+00  0.00000000E+00  0.00000000E+00
  0.00000000E+00  0.00000000E+00  0.00000000E+00
  0.00000000E+00  0.00000000E+00  0.00000000E+00
  0.00000000E+00  0.00000000E+00  0.00000000E+00
  0.00000000E+00  0.00000000E+00  0.00000000E+00
  0.00000000E+00  0.00000000E+00  0.00000000E+00
  0.00000000E+00  0.00000000E+00  0.00000000E+00
  0.00000000E+00  0.00000000E+00  0.00000000E+00
  0.00000000E+00  0.00000000E+00  0.00000000E+00
  0.00000000E+00  0.00000000E+00  0.00000000E+00
  0.00000000E+00  0.00000000E+00  0.00000000E+00
