System
1.0
5.436531762037167 0.0257181177546922 8.270003884307068
2.493908130438754 4.830790037861008 8.269957668082709
0.0419853066287866 0.0257293097525781 9.897055577545522
Li Co O 
6 8 16 
direct
0.2500986892755829 0.249892026488309 0.2498932959512478 Li
0.2500937152026881 0.2499192020445408 0.7500935679018904 Li
0.7500252655107987 0.2500242098664038 0.2500210515466341 Li
0.749892877955233 0.2498918201084683 0.7500975656756315 Li
0.7498923372005337 0.7500961789635561 0.2498937159830662 Li
0.7499205818096203 0.7500923654848332 0.7500931299161633 Li
1.000271917963265 0.9991949897056179 0.9991958774579736 Co
0.0007996449081097 -0.0002420430690987 0.5007953516432995 Co
0.000798391627279 0.5007973421941087 -0.0002426045776461 Co
1.0007030793188407 0.5007013588230257 0.5007017177491481 Co
0.4992951003500335 -0.0007045543487311 -0.0007010682408348 Co
0.4991960376152376 0.9991953476328631 0.5002716031267197 Co
0.499196080597415 0.5002704696334827 0.9991962766715217 Co
0.4997573003980865 0.5007997977951991 0.5007961691679683 Co
0.1284388476596036 0.1300569230433337 0.1300684136796043 O
0.1270512672535728 0.1394254893055042 0.6270640944824575 O
0.1270513121964762 0.6270480308449857 0.139443821983452 O
0.1299845068415401 0.629975663841562 0.6300004216846314 O
0.6296373061255144 0.1296336014694054 0.129648660439806 O
0.6300592614870563 0.1300567441246145 0.6284486678412776 O
0.6300591038967852 0.6284349403498597 0.1300692684099786 O
0.6394291862607524 0.6270479395326523 0.6270635351101913 O
0.3714681922312073 0.3699537445253503 0.3699458399260158 O
0.3729500869149546 0.3606114068669432 0.8729400763028848 O
0.372951817090592 0.872952043639983 0.3605960130746412 O
0.3700131427576867 0.8700147536833016 0.8699931398823685 O
0.8703645624768385 0.3703669754594599 0.3703519196059515 O
0.86995578625584 0.3699550779505808 0.8714509635619883 O
0.8699520502829569 0.8714701933035622 0.3699456768373091 O
0.8606087104840284 0.872952645066025 0.8729401335236053 O
