System                                  
   1.0000000000000000     
     5.0852975039957249   -2.5902772518017900    0.0587574710478874
     5.0866997981091675    2.5929535765842875    0.0570575722971357
     3.7135880326146271   -0.0004361197862204    4.3248165883517862
  Bi              F             
     1     6
Direct
     0.0000607005553752    0.0002356136705219   -0.0003840246208077
     0.9098323841784332    0.2470162891377704    0.5987210945231132
     0.2465073895531421    0.5995221081390220    0.9101513212006934
     0.5996793505542151    0.9098149637780224    0.2467178357260615
     0.0901307755569787    0.7529738825101279    0.4010977774241631
     0.7532115934285214    0.4006058318516214    0.0902338344747264
     0.4005778061733332    0.0898313109129157    0.7534621612720508

  0.00000000E+00  0.00000000E+00  0.00000000E+00
  0.00000000E+00  0.00000000E+00  0.00000000E+00
  0.00000000E+00  0.00000000E+00  0.00000000E+00
  0.00000000E+00  0.00000000E+00  0.00000000E+00
  0.00000000E+00  0.00000000E+00  0.00000000E+00
  0.00000000E+00  0.00000000E+00  0.00000000E+00
  0.00000000E+00  0.00000000E+00  0.00000000E+00
