System
1.0
4.947140941002928 -2.5314182041168527 0.0518054503074211
4.947140518331851 2.531419003170406 0.0518067681878822
3.608109800577439 -7.990535509e-07 4.226879355498516
Bi F 
1 6 
direct
0.0 0.0 0.0 Bi
0.9007100777760654 0.25396838720983095 0.5936167940760747 F
0.25396838720983106 0.5936167940760749 0.9007100777760652 F
0.5936167940760749 0.9007100777760653 0.2539683872098309 F
0.09928992222393487 0.7460316127901687 0.4063832059239251 F
0.7460316127901686 0.4063832059239251 0.0992899222239348 F
0.40638320592392513 0.09928992222393476 0.7460316127901687 F
