System                                  
   1.0000000000000000     
     0.0000018936060848    2.8746444031539098    2.8746452143601671
     2.8746459237023143    0.0000016324672466    2.8746455411362875
     2.8746456647138459    2.8746444715373780    0.0000018282316749
  Mn              Rh            
     1     1
Direct
     0.4999999984730324    0.4999998874716584    0.5000000245351784
     0.7500000015269677    0.7500001125283416    0.7499999754648216

  0.00000000E+00  0.00000000E+00  0.00000000E+00
  0.00000000E+00  0.00000000E+00  0.00000000E+00
