System                                  
   1.0000000000000000     
     4.8693524588623047   -0.1072044522386555    1.2910423335680090
     2.2250649637950737    4.3308382309104303    1.2945328356132688
    -0.3285622420148444   -0.1900196589076423   10.5332522100932842
  Li              Mn              O             
     2     6    12
Direct
     0.2701957811976278    0.4551440747646121    0.2426154725363852
     0.4556551388666067    0.2709599769677137    0.7425307178600657
     0.3332713995601742    0.1663446699133437    0.0075792598919309
     0.1663798908439966    0.3335533967784889    0.5074470773403906
     0.0019882756611776    0.8372656372859705    0.9934833289841198
     0.5000497859411818    0.6702289431771606    0.4966444565756387
     0.8383525282118782    0.0020336317720376    0.4938362181406127
     0.6692485180756865    0.4990702177190284    0.9968861657762508
     0.6807811462205234    0.8783152268007205    0.9039812523938133
     0.8769729751820643    0.6823523968019134    0.4031099523728262
     0.4883146577113284    0.4046147750467206    0.3960845264434161
     0.4724562176599216    0.9715477945885718    0.5957482611348891
     0.4055071907168869    0.4877352295752720    0.8957111500792346
     0.7907976172053240    0.3085936128059903    0.5961195624163589
     0.0373956503673006    0.2082180589798462    0.9040850683700815
     0.2067759547399275    0.0395912822512842    0.4037577858254564
     0.3099037456419413    0.7890552367940570    0.0958723129961866
     0.9732212883377456    0.4711674103007428    0.0952449015436156
     0.5984951958517944    0.1763299402240068    0.1071118113439278
     0.1755620420069063    0.5992034874525211    0.6066227179747836

  0.00000000E+00  0.00000000E+00  0.00000000E+00
  0.00000000E+00  0.00000000E+00  0.00000000E+00
  0.00000000E+00  0.00000000E+00  0.00000000E+00
  0.00000000E+00  0.00000000E+00  0.00000000E+00
  0.00000000E+00  0.00000000E+00  0.00000000E+00
  0.00000000E+00  0.00000000E+00  0.00000000E+00
  0.00000000E+00  0.00000000E+00  0.00000000E+00
  0.00000000E+00  0.00000000E+00  0.00000000E+00
  0.00000000E+00  0.00000000E+00  0.00000000E+00
  0.00000000E+00  0.00000000E+00  0.00000000E+00
  0.00000000E+00  0.00000000E+00  0.00000000E+00
  0.00000000E+00  0.00000000E+00  0.00000000E+00
  0.00000000E+00  0.00000000E+00  0.00000000E+00
  0.00000000E+00  0.00000000E+00  0.00000000E+00
  0.00000000E+00  0.00000000E+00  0.00000000E+00
  0.00000000E+00  0.00000000E+00  0.00000000E+00
  0.00000000E+00  0.00000000E+00  0.00000000E+00
  0.00000000E+00  0.00000000E+00  0.00000000E+00
  0.00000000E+00  0.00000000E+00  0.00000000E+00
  0.00000000E+00  0.00000000E+00  0.00000000E+00
