System
1.0
4.753458535147779 -0.0325147196101338 1.3001947204797644
2.236169737156462 4.1947550773538875 1.3001947204797653
-0.2177772627124685 -0.1296837652228933 10.210001551769821
Li Mn O 
2 6 12 
direct
0.25759682172967735 0.43901045382486503 0.2455562641441011 Li
0.4390104538248649 0.25759682172967735 0.7455562641441011 Li
0.33447840668691364 0.16033881283158893 0.009496949577626796 Mn
0.16033881283158893 0.33447840668691364 0.5094969495776267 Mn
0.003378221790452862 0.8384015249125781 0.9950608959928549 Mn
0.501844443110705 0.6765293968484977 0.494962166997887 Mn
0.8384015249125779 0.003378221790452799 0.4950608959928541 Mn
0.6765293968484978 0.5018444431107051 0.9949621669978869 Mn
0.697419502046617 0.8793437537079578 0.8962369362043789 O
0.8793437537079578 0.6974195020466171 0.39623693620437855 O
0.525423437119017 0.3726204800862356 0.3984862044064183 O
0.47469200488688673 0.9694838946647018 0.6021452169020621 O
0.3726204800862357 0.525423437119017 0.8984862044064179 O
0.7865521771024696 0.30372425288440874 0.6021841685511425 O
0.0488478336209309 0.2032441869220341 0.8961044864860475 O
0.20324418692203414 0.048847833620930904 0.3961044864860476 O
0.30372425288440863 0.7865521771024695 0.10218416855114255 O
0.9694838946647014 0.4746920048868868 0.10214521690206181 O
0.6377557827641208 0.1406396124593352 0.10200271073748028 O
0.14063961245933523 0.6377557827641207 0.6020027107374804 O
