System                                  
   1.0000000000000000     
    11.3414376695480694   -0.0647836135991604   -0.2488026780888000
    -5.6337010728795018    9.9288513910399363    0.0710431474792025
     0.0222419509143507    0.0786910209071783    9.2036924770866690
  Li              Mn              Co              Ni              O             
    11    12     8    12    64
Direct
     0.1720151219023894    0.3385154043177125    0.8975644145979880
     0.1716008567485941    0.8384045796669335    0.8960222550426040
     0.6698797122338781    0.3401292304048305    0.8956307949192700
     0.6713099102295733    0.8375888592410183    0.8959596907833830
     0.4919897910166917    0.9949830631273939    0.4941798991069964
     0.9968606384359943    0.4963878815124915    0.4923917175706340
     0.9936040453864343    0.9952808479798337    0.4937429533611858
     0.3345222085617106    0.1662592883616846    0.4037664770594774
     0.3337724982732952    0.6620926642701042    0.4037012325243441
     0.8305330818204512    0.1613759968278064    0.4021540132900450
     0.8293485410111203    0.6639881677792583    0.3988490464750328
     0.0853752525369091    0.4168397193917945    0.2066880343146553
     0.0857712470107771    0.9179079600290897    0.2047575656002971
     0.5854548855524611    0.4189736187230038    0.2086574268942714
     0.5859199333821802    0.9155429642680819    0.2070193236371748
     0.0873899173757396    0.1702662683238387    0.2069626195304983
     0.0846608979469431    0.6688947403746578    0.2047318551963117
     0.5860881369535206    0.1692619611251305    0.2062268059581032
     0.5851181075664994    0.6685668502101143    0.2096800952482073
     0.1665133084899561    0.0835808057755791    0.7222059882884687
     0.1679890015320405    0.5811047992494848    0.7192667119214073
     0.6651281449720764    0.0814878629795140    0.7214078253838412
     0.6671796996429981    0.5806743848311803    0.7053632042825674
     0.1686993912126537    0.3293430284549848    0.4831635583544889
     0.1661199337057305    0.8278076086318754    0.4836176667496180
     0.6691030990350221    0.3317983980490282    0.4841983390592933
     0.6622825125303234    0.8256216699387937    0.4822939665460781
     0.3414752845019166    0.1736556599668228    0.9843188787204127
     0.3412712165742279    0.6719365521042600    0.9862596831351217
     0.8408534816566936    0.1736959077580970    0.9866178100942805
     0.8424687953693910    0.6738881494075207    0.9824997506645512
     0.4166927079443705    0.0861033715385313    0.7193418821949449
     0.4200023440438730    0.5856949792045605    0.7112020881479959
     0.9151079812210862    0.0828233881172969    0.7182088047395850
     0.9185712360470201    0.5863470243897227    0.7160545264374766
     0.3345274342785512    0.4181968921237982    0.2087928364468128
     0.3326143331005589    0.9152888137143576    0.2036763965520938
     0.8323866317708989    0.4150670532244233    0.2041542708133952
     0.8306723053934856    0.9164080347428620    0.2056310716050931
     0.4148293552206906    0.3317267371169906    0.7080054758231203
     0.4134377677317215    0.8303990446906757    0.7194783508207748
     0.9138094426977785    0.3296024359794312    0.7184755059824257
     0.9137920490619792    0.8309139558465872    0.7163495993497377
     0.1729015949004105    0.0873908674888707    0.1042339660218906
     0.1726620859490344    0.5874560330374654    0.1038400355090045
     0.6722289784011088    0.0880742514145451    0.1022214621821818
     0.6717684078847310    0.5871779179265331    0.1034222018353755
     0.4219180710901254    0.3365318900906573    0.0948248586060282
     0.4189382246908534    0.8353089018904465    0.0902622941452931
     0.9215311359686251    0.3386901069938411    0.0909685835312847
     0.9199549332958443    0.8303912635044354    0.0944205918040015
     0.3313580185592190    0.1651550215601694    0.6136222662332647
     0.3342420862704967    0.6703768441502167    0.6132770517429011
     0.8330888736219145    0.1664435810028151    0.6158408332394999
     0.8383439664252861    0.6715553544166507    0.6093497150829311
     0.2625455084589718    0.0233529998447238    0.8487593136757986
     0.2651230742070998    0.5237968790762219    0.8447007536159926
     0.7597663862841385    0.0238909165786138    0.8511892320842924
     0.7649596759604751    0.5242841962379182    0.8399166746167190
     0.2514178265763206    0.2331468106239684    0.8496215695495123
     0.2603227659177354    0.7395939988000750    0.8424067325421302
     0.7612404065573133    0.2426431358828142    0.8413318583934690
     0.7605604494129042    0.7398640882617613    0.8367996834661375
     0.3185233407955022    0.4056041046171565    0.5942737485028523
     0.3260876677975116    0.9077228750975013    0.5987046406591436
     0.8337005471269746    0.4077019298295709    0.5910639305098259
     0.8318251490584553    0.9100238506440763    0.5966304695350445
     0.2351468840769846    0.2541011674273705    0.3460930757741654
     0.2310735092337583    0.7491114187413691    0.3476247763355649
     0.7321652996023894    0.2506483636137832    0.3460503336830665
     0.7307208361318749    0.7513494038153320    0.3462183545814316
     0.0187737988763587    0.2588590750495788    0.3359146518558734
     0.0190788541723228    0.7594292205711122    0.3356978172319089
     0.5213536372856953    0.2600565176391713    0.3377392366511370
     0.5157366251075396    0.7583471913827141    0.3346853883196994
     0.0823893408701633    0.1609285824802606    0.5984837002205109
     0.0812181162689724    0.6605070042714110    0.5991793986758304
     0.5800910213618053    0.1600734313853432    0.5996433930318910
     0.5805667771379746    0.6590127053879299    0.5959930042682202
     0.9944852790618340    0.9951256072563820    0.8172137423935215
     0.9977949896525007    0.4954756157607663    0.8156154654833526
     0.4954948335065022    0.9963505795242207    0.8185344669275747
     0.5005046981997054    0.4963831941177531    0.8062153738023193
     0.0078156317358878    0.0039339025741759    0.3038655378848071
     0.9979627202271970    0.4988858160007710    0.3015153809667454
     0.4986686417119497    0.9989994396382613    0.3024740252898504
     0.5000538674857784    0.4986886746662266    0.3112341752719515
     0.1697060451334836    0.3370630040131913    0.1038652264844101
     0.1680353499030149    0.8338088539378503    0.1014552348462685
     0.6690796929650925    0.3354792511058319    0.1029253245756164
     0.6578011012471630    0.8289143985822254    0.0993079209689449
     0.4824958770860525    0.2494988195542295    0.8496829456488055
     0.4831062534905508    0.7507819323132926    0.8478108219024848
     0.9826075106207929    0.2502299096133841    0.8490214110632180
     0.9843825313175868    0.7515071474505987    0.8468537887093845
     0.0791989478510066    0.4154047168142563    0.6055698981184442
     0.0802714446178572    0.9158923301127307    0.6046370519672257
     0.5956136639892484    0.4152509006799986    0.5943296370508357
     0.5769934410327971    0.9159887271057785    0.6083257576678071
     0.2328618330644669    0.4771071684361373    0.3476280479964008
     0.2383944830707552    0.9759418380068869    0.3454671475261157
     0.7427729529082377    0.4777429457123266    0.3418545793578595
     0.7309625933797199    0.9769078739618313    0.3476183375341289
     0.4211539536442281    0.0971812968726246    0.0951991510664145
     0.4180834984115482    0.5928851125562826    0.0954719975757322
     0.9199092032355898    0.0981087543411436    0.0947346300364368
     0.9218099583923339    0.5947958820584892    0.0912108158058615

  0.00000000E+00  0.00000000E+00  0.00000000E+00
  0.00000000E+00  0.00000000E+00  0.00000000E+00
  0.00000000E+00  0.00000000E+00  0.00000000E+00
  0.00000000E+00  0.00000000E+00  0.00000000E+00
  0.00000000E+00  0.00000000E+00  0.00000000E+00
  0.00000000E+00  0.00000000E+00  0.00000000E+00
  0.00000000E+00  0.00000000E+00  0.00000000E+00
  0.00000000E+00  0.00000000E+00  0.00000000E+00
  0.00000000E+00  0.00000000E+00  0.00000000E+00
  0.00000000E+00  0.00000000E+00  0.00000000E+00
  0.00000000E+00  0.00000000E+00  0.00000000E+00
  0.00000000E+00  0.00000000E+00  0.00000000E+00
  0.00000000E+00  0.00000000E+00  0.00000000E+00
  0.00000000E+00  0.00000000E+00  0.00000000E+00
  0.00000000E+00  0.00000000E+00  0.00000000E+00
  0.00000000E+00  0.00000000E+00  0.00000000E+00
  0.00000000E+00  0.00000000E+00  0.00000000E+00
  0.00000000E+00  0.00000000E+00  0.00000000E+00
  0.00000000E+00  0.00000000E+00  0.00000000E+00
  0.00000000E+00  0.00000000E+00  0.00000000E+00
  0.00000000E+00  0.00000000E+00  0.00000000E+00
  0.00000000E+00  0.00000000E+00  0.00000000E+00
  0.00000000E+00  0.00000000E+00  0.00000000E+00
  0.00000000E+00  0.00000000E+00  0.00000000E+00
  0.00000000E+00  0.00000000E+00  0.00000000E+00
  0.00000000E+00  0.00000000E+00  0.00000000E+00
  0.00000000E+00  0.00000000E+00  0.00000000E+00
  0.00000000E+00  0.00000000E+00  0.00000000E+00
  0.00000000E+00  0.00000000E+00  0.00000000E+00
  0.00000000E+00  0.00000000E+00  0.00000000E+00
  0.00000000E+00  0.00000000E+00  0.00000000E+00
  0.00000000E+00  0.00000000E+00  0.00000000E+00
  0.00000000E+00  0.00000000E+00  0.00000000E+00
  0.00000000E+00  0.00000000E+00  0.00000000E+00
  0.00000000E+00  0.00000000E+00  0.00000000E+00
  0.00000000E+00  0.00000000E+00  0.00000000E+00
  0.00000000E+00  0.00000000E+00  0.00000000E+00
  0.00000000E+00  0.00000000E+00  0.00000000E+00
  0.00000000E+00  0.00000000E+00  0.00000000E+00
  0.00000000E+00  0.00000000E+00  0.00000000E+00
  0.00000000E+00  0.00000000E+00  0.00000000E+00
  0.00000000E+00  0.00000000E+00  0.00000000E+00
  0.00000000E+00  0.00000000E+00  0.00000000E+00
  0.00000000E+00  0.00000000E+00  0.00000000E+00
  0.00000000E+00  0.00000000E+00  0.00000000E+00
  0.00000000E+00  0.00000000E+00  0.00000000E+00
  0.00000000E+00  0.00000000E+00  0.00000000E+00
  0.00000000E+00  0.00000000E+00  0.00000000E+00
  0.00000000E+00  0.00000000E+00  0.00000000E+00
  0.00000000E+00  0.00000000E+00  0.00000000E+00
  0.00000000E+00  0.00000000E+00  0.00000000E+00
  0.00000000E+00  0.00000000E+00  0.00000000E+00
  0.00000000E+00  0.00000000E+00  0.00000000E+00
  0.00000000E+00  0.00000000E+00  0.00000000E+00
  0.00000000E+00  0.00000000E+00  0.00000000E+00
  0.00000000E+00  0.00000000E+00  0.00000000E+00
  0.00000000E+00  0.00000000E+00  0.00000000E+00
  0.00000000E+00  0.00000000E+00  0.00000000E+00
  0.00000000E+00  0.00000000E+00  0.00000000E+00
  0.00000000E+00  0.00000000E+00  0.00000000E+00
  0.00000000E+00  0.00000000E+00  0.00000000E+00
  0.00000000E+00  0.00000000E+00  0.00000000E+00
  0.00000000E+00  0.00000000E+00  0.00000000E+00
  0.00000000E+00  0.00000000E+00  0.00000000E+00
  0.00000000E+00  0.00000000E+00  0.00000000E+00
  0.00000000E+00  0.00000000E+00  0.00000000E+00
  0.00000000E+00  0.00000000E+00  0.00000000E+00
  0.00000000E+00  0.00000000E+00  0.00000000E+00
  0.00000000E+00  0.00000000E+00  0.00000000E+00
  0.00000000E+00  0.00000000E+00  0.00000000E+00
  0.00000000E+00  0.00000000E+00  0.00000000E+00
  0.00000000E+00  0.00000000E+00  0.00000000E+00
  0.00000000E+00  0.00000000E+00  0.00000000E+00
  0.00000000E+00  0.00000000E+00  0.00000000E+00
  0.00000000E+00  0.00000000E+00  0.00000000E+00
  0.00000000E+00  0.00000000E+00  0.00000000E+00
  0.00000000E+00  0.00000000E+00  0.00000000E+00
  0.00000000E+00  0.00000000E+00  0.00000000E+00
  0.00000000E+00  0.00000000E+00  0.00000000E+00
  0.00000000E+00  0.00000000E+00  0.00000000E+00
  0.00000000E+00  0.00000000E+00  0.00000000E+00
  0.00000000E+00  0.00000000E+00  0.00000000E+00
  0.00000000E+00  0.00000000E+00  0.00000000E+00
  0.00000000E+00  0.00000000E+00  0.00000000E+00
  0.00000000E+00  0.00000000E+00  0.00000000E+00
  0.00000000E+00  0.00000000E+00  0.00000000E+00
  0.00000000E+00  0.00000000E+00  0.00000000E+00
  0.00000000E+00  0.00000000E+00  0.00000000E+00
  0.00000000E+00  0.00000000E+00  0.00000000E+00
  0.00000000E+00  0.00000000E+00  0.00000000E+00
  0.00000000E+00  0.00000000E+00  0.00000000E+00
  0.00000000E+00  0.00000000E+00  0.00000000E+00
  0.00000000E+00  0.00000000E+00  0.00000000E+00
  0.00000000E+00  0.00000000E+00  0.00000000E+00
  0.00000000E+00  0.00000000E+00  0.00000000E+00
  0.00000000E+00  0.00000000E+00  0.00000000E+00
  0.00000000E+00  0.00000000E+00  0.00000000E+00
  0.00000000E+00  0.00000000E+00  0.00000000E+00
  0.00000000E+00  0.00000000E+00  0.00000000E+00
  0.00000000E+00  0.00000000E+00  0.00000000E+00
  0.00000000E+00  0.00000000E+00  0.00000000E+00
  0.00000000E+00  0.00000000E+00  0.00000000E+00
  0.00000000E+00  0.00000000E+00  0.00000000E+00
  0.00000000E+00  0.00000000E+00  0.00000000E+00
  0.00000000E+00  0.00000000E+00  0.00000000E+00
  0.00000000E+00  0.00000000E+00  0.00000000E+00
  0.00000000E+00  0.00000000E+00  0.00000000E+00
