System
1.0
11.34143766954807 -0.0647836135991604 -0.2488026780888
-5.633701072879502 9.928851391039936 0.0710431474792025
0.0222419509143507 0.0786910209071783 9.203692477086669
Li Mn Co Ni O 
11 12 8 12 64 
direct
0.1722244389234248 0.3386327337082524 0.8956782429912223 Li
0.1697545785326488 0.8367287222221221 0.8967454128061905 Li
0.6690200056630221 0.3379358527224458 0.891895467067555 Li
0.6708243504949537 0.8379304456712146 0.8954679380693181 Li
0.4963930319846414 0.9987473877877188 0.494301532132666 Li
0.9949664486446037 0.4956143023745825 0.4935727811036038 Li
0.9952272529431908 0.9962944320459909 0.4944864232822154 Li
0.3325555531954915 0.1626612296789949 0.4030080602501032 Li
0.3315923974709345 0.6653245671915514 0.4029017477401533 Li
0.8307011634358084 0.1603442256614902 0.40243494106197 Li
0.8316744750830611 0.6649492962810721 0.3983662917835577 Li
0.0851042520168334 0.4178093450223119 0.2062625437157231 Mn
0.0869800646331338 0.9181543953372244 0.2065382626500172 Mn
0.5856819761068245 0.4167823702987887 0.2018893038175547 Mn
0.585255740939398 0.9151708839630509 0.206780470823538 Mn
0.0875568697116288 0.170318195421849 0.2059189655210679 Mn
0.0856990451759592 0.6703570724474449 0.2066646389652316 Mn
0.5849815824026346 0.1679927422721383 0.2051207299801591 Mn
0.586336958427619 0.6702838280897668 0.2052038082642807 Mn
0.1646378100276812 0.0815706064225326 0.7246025222299279 Mn
0.1679729377047195 0.5828399752770471 0.7189561746528498 Mn
0.666603286441711 0.083374083783659 0.7200224510095451 Mn
0.669334638714865 0.581231148370108 0.7133224165784422 Mn
0.1679349748957477 0.3294499267243011 0.4832618908248642 Co
0.1644039691028241 0.8291181412664815 0.4821000197505966 Co
0.6714931042964519 0.3301816964534224 0.4820145094147738 Co
0.661679390900935 0.8262103594072981 0.4822100548145615 Co
0.3379072809522563 0.1687600768490267 0.9845938273493259 Co
0.3404263866620396 0.6730437916468833 0.9865502608211296 Co
0.8405317160493867 0.1728174190386097 0.9862628610170385 Co
0.8437942311462832 0.6751508574733407 0.9843867034810191 Co
0.412557691514773 0.080839381460179 0.7188047326800052 Ni
0.419440130289696 0.5867267533779384 0.7183853709369363 Ni
0.9143532952838725 0.0821618925957223 0.7176582152273474 Ni
0.919737474205879 0.5868083457694224 0.7180482532379591 Ni
0.3333672354645729 0.418498126990693 0.202452377487301 Ni
0.3314972089452625 0.9147937890486819 0.2053373522201723 Ni
0.8328464471491281 0.415558332636177 0.2021175273069387 Ni
0.831492537197847 0.9163232539330463 0.2060917568917436 Ni
0.4135872492286983 0.3285719820410509 0.7145545691755143 Ni
0.4147172249216752 0.8326887033232814 0.720236965438423 Ni
0.9153575693393352 0.3297318123001211 0.7185341091839931 Ni
0.9139076192206909 0.8314780273179111 0.7175355899424116 Ni
0.1725218224479108 0.0881026709732649 0.1038642771132438 O
0.1723328123031229 0.587344984163258 0.1033036085858181 O
0.6713138996936208 0.0869099818773254 0.1020701814312936 O
0.6731433929099668 0.5876834575717435 0.1007351649957831 O
0.4222778458594176 0.3340640909177005 0.0904088327977725 O
0.4169798462886394 0.8320178922637966 0.0928519716677798 O
0.9219372584131943 0.3387221092403698 0.0905941451965819 O
0.920521006457518 0.8307586401579743 0.0938999108459539 O
0.3297054113166899 0.1629930770966299 0.6152736819577426 O
0.3350381365561237 0.6715642610648266 0.6146886311636868 O
0.8340832743105178 0.1668024733631456 0.6149776920376783 O
0.837344255256977 0.6713933746014082 0.6113361923443992 O
0.2520190977681809 0.019036885305465 0.85455430987276 O
0.2653107304067885 0.5247751568753457 0.8461238409628563 O
0.757587830806093 0.0237760887097287 0.8521878584766391 O
0.7661637636174636 0.5243327640911588 0.8430831214731478 O
0.2516324441767143 0.2326725692332647 0.8516089085658456 O
0.260515829253892 0.7411589606984381 0.8422474083864729 O
0.762748915189409 0.243119235884327 0.8415379945461954 O
0.7605794878833914 0.7404451601461097 0.8392320863754485 O
0.3248621623108707 0.4092033298677323 0.5945279897560174 O
0.3351931143383197 0.9147492118549407 0.5993572613173906 O
0.8323855658751654 0.408912729657515 0.5967746671823776 O
0.8325423599337831 0.9113475827572235 0.596843248897149 O
0.2383555193270715 0.2576156584422246 0.343160930948435 O
0.2316939038034843 0.7516605674995662 0.3466041234640188 O
0.7335698889556111 0.2497470008967608 0.3435645422715894 O
0.7293958739174274 0.749828445368193 0.3462390672678223 O
0.0191004804883648 0.2591253173663305 0.3355904512727808 O
0.0183974589757811 0.7595245829523486 0.3349772060576851 O
0.520153645519671 0.2600426533138495 0.3342926951582186 O
0.5154625022331901 0.7568217167506182 0.3338530229831229 O
0.0847895520298119 0.164030697948688 0.5974701199862305 O
0.0802659342366954 0.6593759581385957 0.6009603276719551 O
0.5877978919604616 0.1667373058667245 0.5966513568796153 O
0.5779278589804429 0.6564755514068681 0.5981915953648832 O
0.9926043622783262 0.9951763917463058 0.8186291000899728 O
0.9988816114713059 0.4949690307192107 0.8169411538762626 O
0.4970902446535006 0.9983910296973736 0.818618754857499 O
0.5004629825818016 0.4949517680594383 0.8120984292990878 O
0.0090267279643377 0.0052336562113422 0.3045053017907298 O
0.9975531420573136 0.4990446002281791 0.3020413450986517 O
0.497626645903255 0.9983416719964929 0.3024115648367144 O
0.4999686080785949 0.4984474855656044 0.3007760570897655 O
0.1680681123761994 0.3372744039821595 0.101831093777377 O
0.1692473718141572 0.8345937504653111 0.1025780240587821 O
0.6689774907269935 0.3337208655824584 0.09973043221921 O
0.6587249948546052 0.8301065623542871 0.098416917428887 O
0.479154261542557 0.23858260537247 0.8479557390329795 O
0.482954610323628 0.7510454873923326 0.8493074070753744 O
0.9823724453104258 0.2478522818415207 0.8486914088817876 O
0.9841628778248853 0.751392741222516 0.8471241533674994 O
0.0800066244214078 0.4155848640540647 0.6052887590636632 O
0.0791297132965747 0.9167719731104405 0.6073200842710242 O
0.5926871092560726 0.4195507572621298 0.5946158399867085 O
0.5785038830174164 0.9169212600972114 0.6088087185238724 O
0.2329343153667691 0.478252137203636 0.3476082983874163 O
0.2377284329144197 0.977201890599144 0.344755478543689 O
0.7414279386064337 0.4771533179155878 0.3385284340763985 O
0.7301823782192242 0.9761304377749819 0.3477642940900059 O
0.4190924155991494 0.0928647530270122 0.0947221576831077 O
0.4190924852374224 0.591701602094442 0.0918883144368917 O
0.9194169949396286 0.0975787803157752 0.0954806701713059 O
0.9232459640796463 0.595693455355398 0.0905594738704547 O
