System                                  
   1.0000000000000000     
     5.1339394202127755    2.9513608372672824    0.2470611955591804
    -5.2229724500892152    3.1156239397980801   -0.0093075584057138
     0.1484462753835309    0.2727629514276614    5.9207414093754753
  Sr              Si              N             
     3     2     6
Direct
     0.2999915174601629    0.7034671551021096    0.5166860176399092
     0.7002836564326134    0.2967475735456362    0.4834803974698859
     0.4996553063933964    0.4995846559108856    0.0003129447554147
     0.9235774618339264    0.9139010803143964    0.3155965186622210
     0.0761545625915292    0.0860133570685022    0.6840793469010815
     0.9686506141280493    0.6706707333139976    0.2243697832462278
     0.3252746237726958    0.0578165184093105    0.7770332566076554
     0.0313493251177345    0.3294423843660974    0.7756085881915842
     0.6749311226569883    0.9421607628673483    0.2230106887170969
     0.1994565499022087    0.2009388297829547    0.3894496424504311
     0.8006752597106936    0.7992569493187310    0.6103728153584893

  0.00000000E+00  0.00000000E+00  0.00000000E+00
  0.00000000E+00  0.00000000E+00  0.00000000E+00
  0.00000000E+00  0.00000000E+00  0.00000000E+00
  0.00000000E+00  0.00000000E+00  0.00000000E+00
  0.00000000E+00  0.00000000E+00  0.00000000E+00
  0.00000000E+00  0.00000000E+00  0.00000000E+00
  0.00000000E+00  0.00000000E+00  0.00000000E+00
  0.00000000E+00  0.00000000E+00  0.00000000E+00
  0.00000000E+00  0.00000000E+00  0.00000000E+00
  0.00000000E+00  0.00000000E+00  0.00000000E+00
  0.00000000E+00  0.00000000E+00  0.00000000E+00
