System                                  
   1.0000000000000000     
     4.5094540252014621    4.9068262743428503    0.0289792467146269
    -4.5094540252014621    4.9068262743428503    0.0289792467146269
     0.0000000000000000    1.8282662812452091    5.0641035438833004
  Li              Sc              Si              O             
     2     2     4    12
Direct
     0.2452524598715513    0.7547475401284487    0.2500000000000000
     0.7547475401284487    0.2452524598715513    0.7500000000000000
     0.1059792223528362    0.8940207776471638    0.7500000000000000
     0.8940207776471638    0.1059792223528362    0.2500000000000000
     0.3873693395556899    0.2136292583604842    0.2234431099707450
     0.7863707416395158    0.6126306604443172    0.2765568900292550
     0.2136292583604842    0.3873693395556899    0.7234431099707450
     0.6126306604443172    0.7863707416395158    0.7765568900292550
     0.1232718870048330    0.6217287015151669    0.6467511011542229
     0.8767281129951670    0.3782712984848331    0.3532488988457771
     0.6571865942455659    0.6306419815414017    0.0483397103558332
     0.3693580184585983    0.3428134057544412    0.4516602896441668
     0.3428134057544412    0.3693580184585983    0.9516602896441668
     0.6306419815414017    0.6571865942455659    0.5483397103558332
     0.7946862501579233    0.9629928045514831    0.6576732993445447
     0.0370071954485169    0.2053137498420767    0.8423267006554553
     0.2053137498420767    0.0370071954485169    0.3423267006554553
     0.9629928045514831    0.7946862501579233    0.1576732993445447
     0.6217287015151669    0.1232718870048330    0.1467511011542229
     0.3782712984848331    0.8767281129951670    0.8532488988457771

  0.00000000E+00  0.00000000E+00  0.00000000E+00
  0.00000000E+00  0.00000000E+00  0.00000000E+00
  0.00000000E+00  0.00000000E+00  0.00000000E+00
  0.00000000E+00  0.00000000E+00  0.00000000E+00
  0.00000000E+00  0.00000000E+00  0.00000000E+00
  0.00000000E+00  0.00000000E+00  0.00000000E+00
  0.00000000E+00  0.00000000E+00  0.00000000E+00
  0.00000000E+00  0.00000000E+00  0.00000000E+00
  0.00000000E+00  0.00000000E+00  0.00000000E+00
  0.00000000E+00  0.00000000E+00  0.00000000E+00
  0.00000000E+00  0.00000000E+00  0.00000000E+00
  0.00000000E+00  0.00000000E+00  0.00000000E+00
  0.00000000E+00  0.00000000E+00  0.00000000E+00
  0.00000000E+00  0.00000000E+00  0.00000000E+00
  0.00000000E+00  0.00000000E+00  0.00000000E+00
  0.00000000E+00  0.00000000E+00  0.00000000E+00
  0.00000000E+00  0.00000000E+00  0.00000000E+00
  0.00000000E+00  0.00000000E+00  0.00000000E+00
  0.00000000E+00  0.00000000E+00  0.00000000E+00
  0.00000000E+00  0.00000000E+00  0.00000000E+00
