System
1.0
4.509454025201462 4.90682627434285 0.0289792467146269
-4.509454025201462 4.90682627434285 0.0289792467146269
0.0 1.828266281245209 5.0641035438833
Li Sc Si O 
2 2 4 12 
direct
0.24525245987155464 0.7547475401284452 0.25 Li
0.7547475401284452 0.2452524598715547 0.75 Li
0.10597922235283475 0.8940207776471647 0.75 Sc
0.894020777647165 0.10597922235283488 0.25 Sc
0.3873693395556919 0.21362925836048358 0.2234431099707458 Si
0.7863707416395164 0.6126306604443149 0.2765568900292539 Si
0.21362925836048352 0.38736933955569186 0.7234431099707455 Si
0.6126306604443148 0.7863707416395164 0.7765568900292545 Si
0.12327188700483045 0.621728701515166 0.6467511011542236 O
0.8767281129951694 0.3782712984848337 0.35324889884577637 O
0.6571865942455627 0.6306419815414016 0.048339710355829804 O
0.36935801845859817 0.34281340575443786 0.4516602896441702 O
0.3428134057544378 0.3693580184585981 0.9516602896441703 O
0.6306419815414015 0.6571865942455627 0.5483397103558298 O
0.7946862501579223 0.96299280455148 0.6576732993445431 O
0.03700719544852002 0.20531374984207754 0.8423267006554569 O
0.2053137498420776 0.03700719544852007 0.3423267006554566 O
0.96299280455148 0.7946862501579225 0.15767329934454363 O
0.6217287015151661 0.12327188700483051 0.1467511011542236 O
0.3782712984848337 0.8767281129951692 0.8532488988457766 O
