System                                  
   1.0000000000000000     
     5.3670469005608537    0.0462579843465466    8.2100596820004075
     2.4342502571834710    4.8782326532226712    8.2356834140381512
    -0.0408226551610946    0.0361012653913643    9.8763466914105056
  Co              O             
     8    16
Direct
     0.0033980854669653    0.0010432407809003    0.0009563350024446
     0.9986535052619584    0.9977622902922688    0.4977492230746857
     0.9987327785291248    0.4978712155996760    0.9975284125030703
     0.0034750792354800    0.5010598434499141    0.5010022261184500
     0.4986231061774566    0.9977536294432238    0.9976362447372351
     0.5033304574969764    0.0010052819521076    0.5010337075503252
     0.5033977727457724    0.5010118346155762    0.0009389099741685
     0.4985338453673466    0.4978106641591069    0.4977659979435323
     0.1281936002904040    0.1318590688832493    0.1321527789437865
     0.1328262055787283    0.1352199877018901    0.6355716428300235
     0.1330014940285929    0.6349585609906976    0.1355083633865063
     0.1283373418499744    0.6319399042631750    0.6321073815510085
     0.6330404523041780    0.1350369827009843    0.1353089862727840
     0.6282443646679230    0.1318733787956951    0.6319395026403604
     0.6284271624215574    0.6317230117244589    0.1321051645525705
     0.6332694968849273    0.6348849935955144    0.6354729483661996
     0.3738426692154488    0.3669380809378436    0.3664049270124093
     0.3691742155017193    0.3634875558271886    0.8632404260715931
     0.3691370240386853    0.8637321508629547    0.3631749697503074
     0.3736595876936363    0.8668482823965769    0.8666754891463622
     0.8690302623913470    0.3638292556513342    0.3632533174074644
     0.8737069382546557    0.3670518833512951    0.8667441110062958
     0.8736913401435638    0.8671246784826222    0.3664668135787535
     0.8688475838373205    0.8639292432950674    0.8632628034178063

  0.00000000E+00  0.00000000E+00  0.00000000E+00
  0.00000000E+00  0.00000000E+00  0.00000000E+00
  0.00000000E+00  0.00000000E+00  0.00000000E+00
  0.00000000E+00  0.00000000E+00  0.00000000E+00
  0.00000000E+00  0.00000000E+00  0.00000000E+00
  0.00000000E+00  0.00000000E+00  0.00000000E+00
  0.00000000E+00  0.00000000E+00  0.00000000E+00
  0.00000000E+00  0.00000000E+00  0.00000000E+00
  0.00000000E+00  0.00000000E+00  0.00000000E+00
  0.00000000E+00  0.00000000E+00  0.00000000E+00
  0.00000000E+00  0.00000000E+00  0.00000000E+00
  0.00000000E+00  0.00000000E+00  0.00000000E+00
  0.00000000E+00  0.00000000E+00  0.00000000E+00
  0.00000000E+00  0.00000000E+00  0.00000000E+00
  0.00000000E+00  0.00000000E+00  0.00000000E+00
  0.00000000E+00  0.00000000E+00  0.00000000E+00
  0.00000000E+00  0.00000000E+00  0.00000000E+00
  0.00000000E+00  0.00000000E+00  0.00000000E+00
  0.00000000E+00  0.00000000E+00  0.00000000E+00
  0.00000000E+00  0.00000000E+00  0.00000000E+00
  0.00000000E+00  0.00000000E+00  0.00000000E+00
  0.00000000E+00  0.00000000E+00  0.00000000E+00
  0.00000000E+00  0.00000000E+00  0.00000000E+00
  0.00000000E+00  0.00000000E+00  0.00000000E+00
