Mn   O    Ni   Na
   1.00000000000000     
  11.4294996262000002   0.0000000000000000   0.0000000000000000
  -5.7149085917000004   9.8966311518999994   0.0000000000000000
   0.0030943225000000  -0.0162083707000000  15.2881275770999991
Mn   O    Ni   Na
36  96  12  1  
Direct
  0.0845138750732545  0.1680886675133252  0.3188367343349819  
  0.0844140299534509  0.6688333946378379  0.3192135921972634  
  0.5837767307349124  0.1681213682067466  0.3214923565014663  
  0.5840067816554683  0.6683253557744548  0.3209033237940919  
  0.3341585855342795  0.1681449559180797  0.3215259053255370  
  0.3343244289378193  0.6688680289504662  0.3191614086124425  
  0.8333615773447164  0.1680545275840517  0.3189000799033264  
  0.8341915694583406  0.6683075902219012  0.3209106599254017  
  0.3341881303318459  0.4179209462017104  0.3190113236069904  
  0.3341397098561660  0.9184286778872336  0.3215765807028758  
  0.8335468647412884  0.4179893300353038  0.3190086305832519  
  0.8340695258137188  0.9183465440807410  0.3206921509678513  
  0.1656697340587094  0.0813488179327732  0.6790074805256153  
  0.1663416172853019  0.5824669232510223  0.6850949076982081  
  0.6658945915446649  0.0813867164573421  0.6789772415683176  
  0.6658281686166285  0.5813889538577603  0.6778564078666910  
  0.1663473703003830  0.3309593838697740  0.6851599204152499  
  0.1656576023607779  0.8313600559417731  0.6792709199183128  
  0.6657807637429199  0.3312631074884781  0.6790109142054367  
  0.6658270408603097  0.8313292365491717  0.6780270855547238  
  0.4158344275191894  0.3313012244408691  0.6789469361374644  
  0.4158952837145424  0.8313923533933890  0.6792653772323893  
  0.9149463461182148  0.3309169216357159  0.6851725173922194  
  0.9156195968073426  0.8312842555185813  0.6780903498836771  
  0.4999482996141624  0.5000165621444110  0.9999785049270762  
  0.4999532731472998  0.0000543485993975  0.0000062068322155  
  0.9999249965805256  0.5000404602796182  0.0000979695188470  
  0.9999407540733724  0.0000465685035489  0.9999751605133054  
  0.4999205190089464  0.2499108908825946  0.0000800156287022  
  0.4999218708087114  0.7498810330381476  0.0000973822868279  
  0.9999500094344336  0.2499176809828337  0.0001761436780769  
  0.9999144827628120  0.7498904810194627  0.0000680145144997  
  0.2500215028425187  0.5000232404674083  0.0001304951616182  
  0.2500252651421391  0.0000400106212925  0.0000190113909937  
  0.7499712126382058  0.5000100845743979  0.9999914174345598  
  0.7500487508880114  0.0000332891584992  0.9999880506150256  
  0.0009474454514951  0.4963476516664008  0.6186446918849781  
  0.9987779419068270  0.9989022813510978  0.6158091567782383  
  0.4978422011163013  0.4979621703609496  0.6157565643900537  
  0.4986595011974307  0.9982331975363296  0.6160885906738387  
  0.0010290469138329  0.2516715554849724  0.6188772943791915  
  0.9986823043304880  0.7464267621489449  0.6161071087002407  
  0.4985340387772641  0.2467773607363743  0.6161072984790187  
  0.4977666142630229  0.7464237654382869  0.6160648671037134  
  0.2457278692586111  0.4964221302366377  0.6186086379217611  
  0.2498731892118851  0.9982656157104416  0.6160725965973575  
  0.7504610401453220  0.4979224828204212  0.6158007457341809  
  0.7504673322894825  0.9990081163047240  0.6157884915079792  
  0.2471912141653561  0.2492970935368134  0.6171219824524158  
  0.2475631291289791  0.7449710861349994  0.6172555339968996  
  0.7524216044693349  0.2493672904043564  0.6171461007411913  
  0.7489590049115910  0.7476724343711058  0.6145948993549775  
  0.0016407143229605  0.0026501701905642  0.3834097147340522  
  0.0027303329147242  0.4995842523543330  0.3818620444382531  
  0.5010886120232797  0.0015042874378241  0.3842996774382053  
  0.4999264620617969  0.5010057856307115  0.3835670098083075  
  0.0029433597547841  0.2561851442793714  0.3815143061187176  
  0.0018449343198020  0.7524510187329041  0.3834001740916904  
  0.5014209616558731  0.2529615787129091  0.3840980148016844  
  0.5004057676964463  0.7523683504061951  0.3834028129810184  
  0.2501920129722306  0.0014166586840601  0.3843293352695040  
  0.2465552654286984  0.4995868867352898  0.3818736410491002  
  0.7508958334095210  0.0026521930984457  0.3834101070950395  
  0.7508772803507716  0.5010811502858932  0.3835758069117344  
  0.2498491061371184  0.2524806002867322  0.3836746552299731  
  0.2500101510310043  0.7502583847664542  0.3839365441622065  
  0.7523832089971795  0.2526098334049592  0.3837207862649555  
  0.7508220047752352  0.7517653731222453  0.3844980184934370  
  0.1671332884183727  0.0835593601720900  0.2581432357094817  
  0.1680484503630344  0.5862529512473470  0.2549491261399695  
  0.6663325460765746  0.0835625714528035  0.2581672338917164  
  0.6668604657431624  0.5838343630863148  0.2585158716730437  
  0.1682414201507131  0.3340033635795343  0.2545309431507501  
  0.1670520881710855  0.8356397296099172  0.2581211421233611  
  0.6665636941670853  0.3353421303650357  0.2581239669552324  
  0.6668583284565421  0.8353695444336828  0.2583830233831647  
  0.4172343361537176  0.0845579973549500  0.2580108065226461  
  0.4174562985637713  0.5848958661658380  0.2567514725543972  
  0.9172342436548876  0.0846664952840582  0.2565901351062992  
  0.9172756227621608  0.5849340207020999  0.2568211471528752  
  0.4186251401672494  0.3352938230824873  0.2580973418176243  
  0.4183681097385559  0.8356276099714923  0.2581155879447019  
  0.9155288735504588  0.3339876716644585  0.2545608494660590  
  0.9183477913543758  0.8354065922182671  0.2582793538707612  
  0.1672394740501491  0.0846045327418124  0.0627159802775515  
  0.1673238507218037  0.5847309547947267  0.0627124628478354  
  0.6673132000597909  0.0846312884519400  0.0627033653177796  
  0.6672787126647206  0.5846547446527193  0.0627368230761429  
  0.1671249065766806  0.3327900399732868  0.0627967328807882  
  0.1670590364555423  0.8328205390965037  0.0627987168305426  
  0.6670839555655533  0.3328370284085287  0.0627883343245894  
  0.6671064946344233  0.8328468809326705  0.0627802048859162  
  0.4166606564178818  0.0833776169072289  0.0632000648794178  
  0.4166945726771404  0.5834214572931947  0.0632059626172951  
  0.9166177950717758  0.0833465218671469  0.0631502255265436  
  0.9166329664115508  0.5834142717478158  0.0631693367516627  
  0.4156903103013669  0.3328621903965929  0.0627962255340826  
  0.4156714321344577  0.8328750164234989  0.0628072413109814  
  0.9155569917418336  0.3328026105002191  0.0627639759257932  
  0.9156273893514080  0.8328363870047611  0.0627817115045025  
  0.0843572450366401  0.1672375697366226  0.9372768744999632  
  0.0843660269755446  0.6671879682220241  0.9372766152004312  
  0.5843086071047245  0.1671569965979532  0.9372612671619676  
  0.5843612886331021  0.6671989254535159  0.9372125432242372  
  0.0832821245835331  0.4165759357227711  0.9370313512892514  
  0.0832765292953259  0.9166070757223812  0.9368276428734174  
  0.5832585808687710  0.4165888808965312  0.9368345522329672  
  0.5832598585167179  0.9166101810763942  0.9368356157855812  
  0.3327871465762944  0.1671695237007812  0.9372496490173282  
  0.3327535355340172  0.6671983820519695  0.9373018575220946  
  0.8328156373806357  0.1672337781596611  0.9373012534518482  
  0.8327485136275464  0.6672004907438590  0.9372277584174156  
  0.3326636072065354  0.4154096508776700  0.9373184644156444  
  0.3326990101780559  0.9154746813840168  0.9372627976063131  
  0.8327296398402259  0.4154241279207020  0.9372989765958152  
  0.8326628493483462  0.9154108659785174  0.9372266728868972  
  0.0808181180071686  0.1624465390326163  0.7436216801521055  
  0.0808950894973400  0.6654662255221879  0.7436650977773004  
  0.5816316471365036  0.1642454473993242  0.7414888674347637  
  0.5816547474776548  0.6641933209983153  0.7409430511585577  
  0.0826299855566887  0.4150281882522161  0.7479488754113939  
  0.0820906868597114  0.9146373320654516  0.7418765395718434  
  0.5824668773382549  0.4148083934470539  0.7417565207204283  
  0.5826431006615631  0.9146211038283540  0.7418469547049737  
  0.3327190738439320  0.1641714543341401  0.7414590347506236  
  0.3348056091368109  0.6654701221318381  0.7436735654244740  
  0.8318058294842174  0.1623343223808503  0.7435649691267503  
  0.8327046161973490  0.6642363713752878  0.7409115367453520  
  0.3350140202920140  0.4165070915126982  0.7435411237494064  
  0.3329854981369411  0.9159095607726596  0.7417168191710560  
  0.8316982423818530  0.4164596617309654  0.7435315299249824  
  0.8329509116953699  0.9157372022079800  0.7409576064945322  
  0.0840226142107650  0.4182580711762659  0.3140404602546220  
  0.0841176732552661  0.9184089420240206  0.3212442733671430  
  0.5840818436885754  0.4184613974906519  0.3213130595809465  
  0.5840889340726060  0.9183638410709248  0.3212694964790405  
  0.4158479760979609  0.0813078593760669  0.6788256220227746  
  0.4160737580489644  0.5815031269557923  0.6792315285890951  
  0.9157603527891384  0.0811621950866422  0.6791625894708836  
  0.9156683199356024  0.5815102623909061  0.6792790526605407  
  0.2499801491666542  0.2500261294533684  0.0000476569342919  
  0.2499616173730610  0.7500347213517526  0.0000358996839940  
  0.7499739607475238  0.2500316951130147  0.0000215934656537  
  0.7499639586253128  0.7500411853026507  0.9999845543239200  
  0.0836854405572965  0.5840334823957823  0.4992955607744234  
