System                                  
   1.0000000000000000     
     4.9759626452035350   -0.0229292311062843    0.0037625251528171
     1.9452418152186131    4.5800447270833873    0.0040887295183425
    -0.0044784012000367   -0.0033760742004764    5.8315179930430956
  V               Co              O             
     2     2     8
Direct
     0.6478875858632458    0.6478872208270740    0.7499961584232115
     0.3521115774738337    0.3521121737880893    0.2500078314559311
     0.0000002295067961    0.0000001767795128    0.5000000110914572
     0.0000000261790005    0.0000002655332355   -0.0000002412562124
     0.2274605452593511    0.2274613942051157    0.0222787403280113
     0.2274586482280998    0.2274598130337774    0.4777270519422585
     0.7725423970951327    0.7725392572421483    0.5222726901759409
     0.7725396092566434    0.7725393321088193    0.9777214615378007
     0.2121593172738929    0.7524672364224458    0.2499988879949159
     0.2475327563989600    0.7878426942933080    0.7499998224327015
     0.7524668820301769    0.2121580272199356    0.2499996231005893
     0.7878404254348600    0.2475334085465426    0.7500009627733870

  0.00000000E+00  0.00000000E+00  0.00000000E+00
  0.00000000E+00  0.00000000E+00  0.00000000E+00
  0.00000000E+00  0.00000000E+00  0.00000000E+00
  0.00000000E+00  0.00000000E+00  0.00000000E+00
  0.00000000E+00  0.00000000E+00  0.00000000E+00
  0.00000000E+00  0.00000000E+00  0.00000000E+00
  0.00000000E+00  0.00000000E+00  0.00000000E+00
  0.00000000E+00  0.00000000E+00  0.00000000E+00
  0.00000000E+00  0.00000000E+00  0.00000000E+00
  0.00000000E+00  0.00000000E+00  0.00000000E+00
  0.00000000E+00  0.00000000E+00  0.00000000E+00
  0.00000000E+00  0.00000000E+00  0.00000000E+00
