System                                  
   1.0000000000000000     
     9.9607399999999995    0.0001100000000000   -0.0000600000000000
     0.0000400000000000   12.9470899999999993    0.0015800000000000
     0.0000400000000000   -0.0010200000000000    9.4285399999999999
  Li              Mn              P               O             
     7    16    16    64
Direct
     0.5324991276343684    0.6184692319744032    0.6816498769757424
     0.2290322603109742    0.1239062060207837    0.1773303100915758
     0.7308327919108162    0.1234178477452696    0.1766069586066260
     0.4793243328856585    0.8786704340395858    0.3280008299208789
     0.9761352147759296    0.8763134008280915    0.3185340492693610
     0.2728165721258721    0.3747869730788199    0.8270250837679832
     0.7713171184007139    0.3750870072446788    0.8258647166748206
     0.5044546760494573    0.2547984554939259    0.0047811445930910
     0.4923072646237173    0.7507411551728166    0.0004433802371755
     0.0011863714286146    0.2474723703149693    0.0041866116404775
     0.0098076761770495    0.7439630473844837    0.9889407535045099
     0.2516341271422172    0.2504994084638437    0.5063876796576072
     0.2473654477576994    0.7508099516958351    0.5002954836868496
     0.7490017632718797    0.2462311279494747    0.4986253087742852
     0.7533070384053681    0.7458995462702500    0.5052807620991255
     0.9993744193820733    0.9990052313748981    0.9852168099690513
     0.0004265101018948    0.4943665619710768    0.0160863573386080
     0.5044769472807976    0.0066237429339734    0.9797791339490870
     0.5011401830038128    0.4999964423849554    0.0187848636735597
     0.2485202335121404    0.5059149190044016    0.4925038870760144
     0.2451839858893089    0.9992080745583716    0.5121370448964074
     0.7579781736608884    0.5018907657080052    0.4931615131803416
     0.7484139967299966    0.9943497153608393    0.5167974254965887
     0.2360964146109678    0.3694601311530487    0.1877349768597813
     0.2289076170992772    0.8817337953860422    0.1704085999314241
     0.7437720263160019    0.3684071343678278    0.1858684358997149
     0.7236565465516041    0.8816220007431559    0.1664409210643157
     0.0269180011327879    0.3801431173399727    0.6726783751421012
     0.0161233998294319    0.8653892720542483    0.6778558250049201
     0.5227482824975463    0.3783343156268824    0.6692258562325997
     0.5053090700085491    0.8611858686235008    0.6813978935397135
     0.2648929331056607    0.1359770064292650    0.8223848323526380
     0.2682873513666533    0.6107451779450157    0.8254032094131499
     0.7621053189890209    0.1338011295257077    0.8184079060324566
     0.7749450515890832    0.6152028551149551    0.8321386552567962
     0.4760431558123108    0.1182571276186676    0.3270330505718554
     0.4807135412796274    0.6359601529394548    0.3249066613103077
     0.9787180438606795    0.1144816006301056    0.3301401198752016
     0.9910020504460684    0.6357560656020473    0.3179899059487092
     0.0934664592168588    0.2820166711338232    0.6095942973015440
     0.0912799775256929    0.7700894466837134    0.6166888047436484
     0.5921263608035913    0.2854835578328258    0.5975932905281774
     0.5744145678782929    0.7607187594566809    0.6337366328150188
     0.1698619503047872    0.2674866226248316    0.1416317817248572
     0.1578194850326430    0.7887836887313870    0.1001166569406187
     0.6778333390842547    0.2665743060722834    0.1346970264301753
     0.6525682706897047    0.7894671233993006    0.0939569595088096
     0.3310637748842487    0.2358734724393046    0.8781849886202729
     0.3470800170036656    0.7050184047281007    0.8830199594546285
     0.8280499269554250    0.2344090569703224    0.8725817995910783
     0.8466733766801807    0.7092547108828609    0.8970458219897339
     0.4000042154707213    0.2119482284952059    0.3910515251685074
     0.4093628499953156    0.7360113821075521    0.3804497586678778
     0.9056292294728417    0.2073386806388225    0.3985165511064165
     0.9208730197139595    0.7363819947334153    0.3640495905179437
     0.3411592973814033    0.0392505994542597    0.8758138246839424
     0.3345702225270953    0.5105063916254814    0.8790120513393026
     0.8377505389192659    0.0375138543169531    0.8670274186896987
     0.8431241605608296    0.5146400129048451    0.8919641554507765
     0.4125248592569545    0.0170350658753282    0.3831468366720167
     0.4022652884376908    0.5404830127419604    0.3797422292312567
     0.9165217950323921    0.0124782974965755    0.3832173708758698
     0.9168028063447594    0.5401480641841085    0.3716288977585687
     0.3825684582268394    0.3749436763884397    0.1323126594995047
     0.3822164323166031    0.8769364904871517    0.1357690725638824
     0.8911831801965515    0.3726963413839975    0.1229027657488840
     0.8758155590958875    0.8806191970961151    0.1313498116660657
     0.2746580212134386    0.1344423454094520    0.6537045154328263
     0.2940032483921710    0.6151617882983206    0.6561667932144774
     0.7654035382430303    0.1340486458191508    0.6496193765771114
     0.7867859263219347    0.6169454420131600    0.6663595137546808
     0.1187765351314990    0.1303892011740369    0.8813832577183051
     0.1198762713155475    0.6167131822363637    0.8743794181602279
     0.6145777773052774    0.1299848339895273    0.8812459079446044
     0.6235714688225624    0.6155907753178711    0.8759271851205382
     0.1313869675296502    0.1197840784572869    0.3684706901803083
     0.1399302150120155    0.6355299134086778    0.3774614760421266
     0.6280940070558177    0.1225412056843185    0.3639799023578636
     0.6262630411800247    0.6324107470134073    0.3816762002505664
     0.0555504397171252    0.3790047603594306    0.8381986404276929
     0.0246235820511786    0.8602787516310411    0.8466483864616996
     0.5537049745956836    0.3732942378552907    0.8331639364654058
     0.5088657809375846    0.8658664674934549    0.8516162727046493
     0.2262145077019545    0.3763099611883127    0.3586093434359230
     0.1986787980912503    0.8755578212533861    0.3355418864835662
     0.7405868910984634    0.3667394418593865    0.3562223001644446
     0.6926980495479559    0.8765054140963203    0.3300591794449054
     0.1580467274582078    0.4631402080685121    0.1256631064364037
     0.1674423923238363    0.9838211435701314    0.1155151723754053
     0.6663386775777327    0.4628578781752870    0.1367452109869514
     0.6598951891915588    0.9842193929470955    0.1083402654425779
     0.4502815220803550    0.1236915970989572    0.1607303905894638
     0.4712314402033008    0.6372033570757292    0.1570031770138593
     0.9518683108871001    0.1219862924023846    0.1645968639068001
     0.9858949986473425    0.6308124990420779    0.1468273198958342
     0.3689273705253759    0.3739322252083183    0.6343959972555123
     0.3571543103694785    0.8624861946740676    0.6176995658533389
     0.8745828186605089    0.3808015327704290    0.6386849218140314
     0.8688215339943074    0.8635063409315487    0.6213042449978924
     0.0968010960476847    0.4762596634113235    0.6078751103959614
     0.0844828179371443    0.9662632820743536    0.6328934131251093
     0.5839562322457567    0.4799354864726745    0.6115586396562011
     0.5785517754321334    0.9571815818406700    0.6291304528968485

  0.00000000E+00  0.00000000E+00  0.00000000E+00
  0.00000000E+00  0.00000000E+00  0.00000000E+00
  0.00000000E+00  0.00000000E+00  0.00000000E+00
  0.00000000E+00  0.00000000E+00  0.00000000E+00
  0.00000000E+00  0.00000000E+00  0.00000000E+00
  0.00000000E+00  0.00000000E+00  0.00000000E+00
  0.00000000E+00  0.00000000E+00  0.00000000E+00
  0.00000000E+00  0.00000000E+00  0.00000000E+00
  0.00000000E+00  0.00000000E+00  0.00000000E+00
  0.00000000E+00  0.00000000E+00  0.00000000E+00
  0.00000000E+00  0.00000000E+00  0.00000000E+00
  0.00000000E+00  0.00000000E+00  0.00000000E+00
  0.00000000E+00  0.00000000E+00  0.00000000E+00
  0.00000000E+00  0.00000000E+00  0.00000000E+00
  0.00000000E+00  0.00000000E+00  0.00000000E+00
  0.00000000E+00  0.00000000E+00  0.00000000E+00
  0.00000000E+00  0.00000000E+00  0.00000000E+00
  0.00000000E+00  0.00000000E+00  0.00000000E+00
  0.00000000E+00  0.00000000E+00  0.00000000E+00
  0.00000000E+00  0.00000000E+00  0.00000000E+00
  0.00000000E+00  0.00000000E+00  0.00000000E+00
  0.00000000E+00  0.00000000E+00  0.00000000E+00
  0.00000000E+00  0.00000000E+00  0.00000000E+00
  0.00000000E+00  0.00000000E+00  0.00000000E+00
  0.00000000E+00  0.00000000E+00  0.00000000E+00
  0.00000000E+00  0.00000000E+00  0.00000000E+00
  0.00000000E+00  0.00000000E+00  0.00000000E+00
  0.00000000E+00  0.00000000E+00  0.00000000E+00
  0.00000000E+00  0.00000000E+00  0.00000000E+00
  0.00000000E+00  0.00000000E+00  0.00000000E+00
  0.00000000E+00  0.00000000E+00  0.00000000E+00
  0.00000000E+00  0.00000000E+00  0.00000000E+00
  0.00000000E+00  0.00000000E+00  0.00000000E+00
  0.00000000E+00  0.00000000E+00  0.00000000E+00
  0.00000000E+00  0.00000000E+00  0.00000000E+00
  0.00000000E+00  0.00000000E+00  0.00000000E+00
  0.00000000E+00  0.00000000E+00  0.00000000E+00
  0.00000000E+00  0.00000000E+00  0.00000000E+00
  0.00000000E+00  0.00000000E+00  0.00000000E+00
  0.00000000E+00  0.00000000E+00  0.00000000E+00
  0.00000000E+00  0.00000000E+00  0.00000000E+00
  0.00000000E+00  0.00000000E+00  0.00000000E+00
  0.00000000E+00  0.00000000E+00  0.00000000E+00
  0.00000000E+00  0.00000000E+00  0.00000000E+00
  0.00000000E+00  0.00000000E+00  0.00000000E+00
  0.00000000E+00  0.00000000E+00  0.00000000E+00
  0.00000000E+00  0.00000000E+00  0.00000000E+00
  0.00000000E+00  0.00000000E+00  0.00000000E+00
  0.00000000E+00  0.00000000E+00  0.00000000E+00
  0.00000000E+00  0.00000000E+00  0.00000000E+00
  0.00000000E+00  0.00000000E+00  0.00000000E+00
  0.00000000E+00  0.00000000E+00  0.00000000E+00
  0.00000000E+00  0.00000000E+00  0.00000000E+00
  0.00000000E+00  0.00000000E+00  0.00000000E+00
  0.00000000E+00  0.00000000E+00  0.00000000E+00
  0.00000000E+00  0.00000000E+00  0.00000000E+00
  0.00000000E+00  0.00000000E+00  0.00000000E+00
  0.00000000E+00  0.00000000E+00  0.00000000E+00
  0.00000000E+00  0.00000000E+00  0.00000000E+00
  0.00000000E+00  0.00000000E+00  0.00000000E+00
  0.00000000E+00  0.00000000E+00  0.00000000E+00
  0.00000000E+00  0.00000000E+00  0.00000000E+00
  0.00000000E+00  0.00000000E+00  0.00000000E+00
  0.00000000E+00  0.00000000E+00  0.00000000E+00
  0.00000000E+00  0.00000000E+00  0.00000000E+00
  0.00000000E+00  0.00000000E+00  0.00000000E+00
  0.00000000E+00  0.00000000E+00  0.00000000E+00
  0.00000000E+00  0.00000000E+00  0.00000000E+00
  0.00000000E+00  0.00000000E+00  0.00000000E+00
  0.00000000E+00  0.00000000E+00  0.00000000E+00
  0.00000000E+00  0.00000000E+00  0.00000000E+00
  0.00000000E+00  0.00000000E+00  0.00000000E+00
  0.00000000E+00  0.00000000E+00  0.00000000E+00
  0.00000000E+00  0.00000000E+00  0.00000000E+00
  0.00000000E+00  0.00000000E+00  0.00000000E+00
  0.00000000E+00  0.00000000E+00  0.00000000E+00
  0.00000000E+00  0.00000000E+00  0.00000000E+00
  0.00000000E+00  0.00000000E+00  0.00000000E+00
  0.00000000E+00  0.00000000E+00  0.00000000E+00
  0.00000000E+00  0.00000000E+00  0.00000000E+00
  0.00000000E+00  0.00000000E+00  0.00000000E+00
  0.00000000E+00  0.00000000E+00  0.00000000E+00
  0.00000000E+00  0.00000000E+00  0.00000000E+00
  0.00000000E+00  0.00000000E+00  0.00000000E+00
  0.00000000E+00  0.00000000E+00  0.00000000E+00
  0.00000000E+00  0.00000000E+00  0.00000000E+00
  0.00000000E+00  0.00000000E+00  0.00000000E+00
  0.00000000E+00  0.00000000E+00  0.00000000E+00
  0.00000000E+00  0.00000000E+00  0.00000000E+00
  0.00000000E+00  0.00000000E+00  0.00000000E+00
  0.00000000E+00  0.00000000E+00  0.00000000E+00
  0.00000000E+00  0.00000000E+00  0.00000000E+00
  0.00000000E+00  0.00000000E+00  0.00000000E+00
  0.00000000E+00  0.00000000E+00  0.00000000E+00
  0.00000000E+00  0.00000000E+00  0.00000000E+00
  0.00000000E+00  0.00000000E+00  0.00000000E+00
  0.00000000E+00  0.00000000E+00  0.00000000E+00
  0.00000000E+00  0.00000000E+00  0.00000000E+00
  0.00000000E+00  0.00000000E+00  0.00000000E+00
  0.00000000E+00  0.00000000E+00  0.00000000E+00
  0.00000000E+00  0.00000000E+00  0.00000000E+00
  0.00000000E+00  0.00000000E+00  0.00000000E+00
  0.00000000E+00  0.00000000E+00  0.00000000E+00
