System                                  
   1.0000000000000000     
     4.5777528634350295    0.0011716137718863   -0.0026351529251451
     0.0015132335906138    5.6020561193456810   -0.1440950662681358
    -0.0020219793796232    2.2156922626257365    4.6643893925327262
  Co              F             
     2     8
Direct
     0.0000460585715737    0.0001066139712607   -0.0000486576114019
     0.4999848645807697    0.0000630668091455    0.4999712967377872
     0.7565755844525577    0.1408684363585452    0.6823325312446942
     0.2562030036259584    0.8589996806775596    0.8188066756608202
     0.2434140777535103    0.8591121657824144    0.3176731289558192
     0.7437872691800352    0.1409846745620374    0.1812050979185930
     0.6827703488911843    0.7043721306270055    0.6277296556752924
     0.1828721643838535    0.2952981892919950    0.8723836717164073
     0.3172561807244138    0.2955810734937264    0.3723013771735048
     0.8170904478361422    0.7046139684263139    0.1276452225284843

  0.00000000E+00  0.00000000E+00  0.00000000E+00
  0.00000000E+00  0.00000000E+00  0.00000000E+00
  0.00000000E+00  0.00000000E+00  0.00000000E+00
  0.00000000E+00  0.00000000E+00  0.00000000E+00
  0.00000000E+00  0.00000000E+00  0.00000000E+00
  0.00000000E+00  0.00000000E+00  0.00000000E+00
  0.00000000E+00  0.00000000E+00  0.00000000E+00
  0.00000000E+00  0.00000000E+00  0.00000000E+00
  0.00000000E+00  0.00000000E+00  0.00000000E+00
  0.00000000E+00  0.00000000E+00  0.00000000E+00
