System                                  
   1.0000000000000000     
    10.2852317212148616   -0.0002002927936414   -5.4002187051931321
    -2.8351896634306994    9.8867470578824275   -5.4002254834420542
     0.0099513128610022    0.0132069081834311   12.5149077806612770
  Mg              Mn              O             
     4    32    64
Direct
     0.1894139489093072    0.8120290968073782    0.3808356258086977
     0.1915356219220419    0.8138364538570438    0.8884538090296095
     0.6763003505835300    0.3060376036495955    0.3563577620162414
     0.7002861453378378    0.8200661783269628    0.8895669848129152
     0.0006193707531731    0.0066472240922724    0.2554156055051156
     0.0130035535072707    0.0077308381415594    0.7680555620564222
     0.9880445566952750    0.4921758855118920    0.2335628653422747
     0.0150677969469456    0.5105732526171697    0.7783164440150472
     0.5064191108822542    0.0004490606992961    0.2599919767823809
     0.5114772466398592    0.0072374807671893    0.7662352203739309
     0.4826017841435423    0.4907238059649761    0.2235846229447949
     0.5013006920206543    0.5006972297830969    0.7491271679768057
     1.0003631463758207    0.2539281699825749    1.0002481578330829
     0.9939789421109700    0.2490561261241379    0.4912125710495298
     0.0130179225635702    0.7567037764111675    0.0226207194302224
     0.9899132509805246    0.7436380689768405    0.4884814065197854
     0.4994720726364638    0.2483771701596835    1.0011720995254587
     0.5025635530575469    0.2552806482685920    0.5054117462456029
     0.4960189727221301    0.7422193971152349    0.9914490557791492
     0.4925417435862691    0.7369607612580359    0.4717318970441111
     0.2608792638556228    0.0107272489430022    0.2666859090293023
     0.2607651687008607    0.0079578461181673    0.7722021788843276
     0.2446482385517719    0.4902704680730355    0.2322759390312671
     0.2458215102945679    0.4962572589357512    0.7452195428337159
     0.7516768576376121    0.9958546655799155    0.2458483970306964
     0.7560764639645170    0.0039554270331964    0.7584047967706854
     0.7406924502296658    0.4934799134919792    0.2267410515024652
     0.7644123087857595    0.5150550843151956    0.7822031101596648
     0.0062991670772955    0.0081783504195649    0.0085537540843951
     0.0031295299925420    0.0065375066369760    0.5127768355205028
     0.0082604447335130    0.5137037492738824    0.0171715165426481
     0.9827343622019161    0.4825650810944518    0.4648975923645094
     0.5008445536559031    0.0024338698033904    1.0028624472351622
     0.5070035020561621    0.0036008011952500    0.5090111622599613
     0.4936845788070442    0.4909382686417791    0.9871252739629015
     0.4823347324499284    0.4833266890186887    0.4671686025113026
     0.3678941356748875    0.3854727387722692    0.2358822024672587
     0.3851087652389664    0.4000028967404712    0.7698119165454039
     0.3976235594555727    0.9100195708968547    0.2937962580695177
     0.4016676509412824    0.9092836225053593    0.7986258871382129
     0.8700007078737144    0.3883446544086254    0.2419519743720821
     0.9044359252017744    0.4193891929466384    0.8104412669621979
     0.8775148390672209    0.8971214590447258    0.2514134674461000
     0.8997542337236719    0.9092049093601806    0.7973980091072100
     0.3740194825122984    0.1130133811161177    0.4751743926472847
     0.3751319659941797    0.1106188854895670    0.9783984697300843
     0.3617074139306252    0.5972801501863758    0.4408609305250757
     0.3711369892805347    0.6050580710453346    0.9628837844217343
     0.8627232506056055    0.1037329453735130    0.4547894768943443
     0.8781397728637064    0.1137786844442373    0.9755644322010038
     0.8546427114974594    0.5945336874000864    0.4378742579346470
     0.9016261420098269    0.6370017661723348    0.0177167892048772
     0.0904872671103069    0.1073814738427233    0.4639660328040758
     0.1017317146799445    0.1159871351896272    0.9805669938210246
     0.0806139567864607    0.5989992810986084    0.4444237454410061
     0.1171824333492449    0.6351281771910536    0.0170465825865688
     0.6043801594950506    0.1233158644234256    0.4940598646411297
     0.6059296382641578    0.1249936030123903    0.0042683328339033
     0.5813305167962460    0.5916336428771289    0.4334360119510248
     0.5927256728812567    0.6051516318812896    0.9638302761863717
     0.1155020969685776    0.0987005087487084    0.2252142093431991
     0.1311689443167000    0.1044326820419307    0.7543658271694351
     0.1143459354381766    0.6057114098415902    0.2312498827987421
     0.1267247151142602    0.6120485399474105    0.7579086638052451
     0.6096490126327444    0.1002647453123425    0.2237053418224993
     0.6101785529612981    0.0934896068741064    0.7187428415433793
     0.5985688285162580    0.5866858283728633    0.1971417453534642
     0.6337826063161087    0.6181359627094943    0.7640799005523190
     0.1034805396048505    0.3688021777618165    0.2085301718945460
     0.0982880874790992    0.3667573104817446    0.7042789173783943
     0.1216377140082657    0.8848704590330468    0.2442425290120021
     0.1343815370071445    0.8923672404039535    0.7650191262219250
     0.6046113963099269    0.3681445005006143    0.2139761595081341
     0.6091262842725462    0.3747660779270374    0.7146903200921020
     0.6082227080329551    0.8693952182908482    0.2098496040144411
     0.6350519815728969    0.8957233739429705    0.7635014494953122
     0.1217798454531248    0.3908851356541331    0.0254395656756844
     0.1237122373188549    0.3942441408222159    0.5321323807451619
     0.1359822562553668    0.8940281630007225    0.0372681965237966
     0.1293760962454608    0.8851844522474711    0.5281433611643365
     0.6173622335561604    0.3794362271243792    0.0159495906822695
     0.6032058152915565    0.3691384340266141    0.4863935897505104
     0.6250850029757581    0.8865198223022364    0.0204510120742026
     0.6335620226531149    0.8950860146102793    0.5425871359633723
     0.3952986194170193    0.1297455819672675    0.2905706528067394
     0.3954838591279328    0.1293770695482961    0.7928867945288572
     0.3667196994632403    0.6007970539040468    0.2336571853488060
     0.3896921595959918    0.6276285772719155    0.7808178727073946
     0.8894683919782858    0.1269090855385394    0.2761705100254579
     0.8953804060232740    0.1259692089848879    0.7842390164271565
     0.8679331348834443    0.6030131499573612    0.2375975302400767
     0.9104013199622829    0.6472501593893882    0.8178252543536368
     0.3964757157023427    0.3809687338582734    0.0136101873164685
     0.4106559281226337    0.3996527810911575    0.5388017574001440
     0.3936143888448060    0.8757562605234510    0.0082500921577345
     0.3921341751710293    0.8723593549083316    0.5001269592611470
     0.9027916661494044    0.3909712234347334    0.0265984595973126
     0.8791535464224366    0.3672390666189367    0.4799043174114979
     0.9048584815062165    0.8950060866558019    0.0341979477739140
     0.9187107572094295    0.9000009111725915    0.5548131398113829

  0.00000000E+00  0.00000000E+00  0.00000000E+00
  0.00000000E+00  0.00000000E+00  0.00000000E+00
  0.00000000E+00  0.00000000E+00  0.00000000E+00
  0.00000000E+00  0.00000000E+00  0.00000000E+00
  0.00000000E+00  0.00000000E+00  0.00000000E+00
  0.00000000E+00  0.00000000E+00  0.00000000E+00
  0.00000000E+00  0.00000000E+00  0.00000000E+00
  0.00000000E+00  0.00000000E+00  0.00000000E+00
  0.00000000E+00  0.00000000E+00  0.00000000E+00
  0.00000000E+00  0.00000000E+00  0.00000000E+00
  0.00000000E+00  0.00000000E+00  0.00000000E+00
  0.00000000E+00  0.00000000E+00  0.00000000E+00
  0.00000000E+00  0.00000000E+00  0.00000000E+00
  0.00000000E+00  0.00000000E+00  0.00000000E+00
  0.00000000E+00  0.00000000E+00  0.00000000E+00
  0.00000000E+00  0.00000000E+00  0.00000000E+00
  0.00000000E+00  0.00000000E+00  0.00000000E+00
  0.00000000E+00  0.00000000E+00  0.00000000E+00
  0.00000000E+00  0.00000000E+00  0.00000000E+00
  0.00000000E+00  0.00000000E+00  0.00000000E+00
  0.00000000E+00  0.00000000E+00  0.00000000E+00
  0.00000000E+00  0.00000000E+00  0.00000000E+00
  0.00000000E+00  0.00000000E+00  0.00000000E+00
  0.00000000E+00  0.00000000E+00  0.00000000E+00
  0.00000000E+00  0.00000000E+00  0.00000000E+00
  0.00000000E+00  0.00000000E+00  0.00000000E+00
  0.00000000E+00  0.00000000E+00  0.00000000E+00
  0.00000000E+00  0.00000000E+00  0.00000000E+00
  0.00000000E+00  0.00000000E+00  0.00000000E+00
  0.00000000E+00  0.00000000E+00  0.00000000E+00
  0.00000000E+00  0.00000000E+00  0.00000000E+00
  0.00000000E+00  0.00000000E+00  0.00000000E+00
  0.00000000E+00  0.00000000E+00  0.00000000E+00
  0.00000000E+00  0.00000000E+00  0.00000000E+00
  0.00000000E+00  0.00000000E+00  0.00000000E+00
  0.00000000E+00  0.00000000E+00  0.00000000E+00
  0.00000000E+00  0.00000000E+00  0.00000000E+00
  0.00000000E+00  0.00000000E+00  0.00000000E+00
  0.00000000E+00  0.00000000E+00  0.00000000E+00
  0.00000000E+00  0.00000000E+00  0.00000000E+00
  0.00000000E+00  0.00000000E+00  0.00000000E+00
  0.00000000E+00  0.00000000E+00  0.00000000E+00
  0.00000000E+00  0.00000000E+00  0.00000000E+00
  0.00000000E+00  0.00000000E+00  0.00000000E+00
  0.00000000E+00  0.00000000E+00  0.00000000E+00
  0.00000000E+00  0.00000000E+00  0.00000000E+00
  0.00000000E+00  0.00000000E+00  0.00000000E+00
  0.00000000E+00  0.00000000E+00  0.00000000E+00
  0.00000000E+00  0.00000000E+00  0.00000000E+00
  0.00000000E+00  0.00000000E+00  0.00000000E+00
  0.00000000E+00  0.00000000E+00  0.00000000E+00
  0.00000000E+00  0.00000000E+00  0.00000000E+00
  0.00000000E+00  0.00000000E+00  0.00000000E+00
  0.00000000E+00  0.00000000E+00  0.00000000E+00
  0.00000000E+00  0.00000000E+00  0.00000000E+00
  0.00000000E+00  0.00000000E+00  0.00000000E+00
  0.00000000E+00  0.00000000E+00  0.00000000E+00
  0.00000000E+00  0.00000000E+00  0.00000000E+00
  0.00000000E+00  0.00000000E+00  0.00000000E+00
  0.00000000E+00  0.00000000E+00  0.00000000E+00
  0.00000000E+00  0.00000000E+00  0.00000000E+00
  0.00000000E+00  0.00000000E+00  0.00000000E+00
  0.00000000E+00  0.00000000E+00  0.00000000E+00
  0.00000000E+00  0.00000000E+00  0.00000000E+00
  0.00000000E+00  0.00000000E+00  0.00000000E+00
  0.00000000E+00  0.00000000E+00  0.00000000E+00
  0.00000000E+00  0.00000000E+00  0.00000000E+00
  0.00000000E+00  0.00000000E+00  0.00000000E+00
  0.00000000E+00  0.00000000E+00  0.00000000E+00
  0.00000000E+00  0.00000000E+00  0.00000000E+00
  0.00000000E+00  0.00000000E+00  0.00000000E+00
  0.00000000E+00  0.00000000E+00  0.00000000E+00
  0.00000000E+00  0.00000000E+00  0.00000000E+00
  0.00000000E+00  0.00000000E+00  0.00000000E+00
  0.00000000E+00  0.00000000E+00  0.00000000E+00
  0.00000000E+00  0.00000000E+00  0.00000000E+00
  0.00000000E+00  0.00000000E+00  0.00000000E+00
  0.00000000E+00  0.00000000E+00  0.00000000E+00
  0.00000000E+00  0.00000000E+00  0.00000000E+00
  0.00000000E+00  0.00000000E+00  0.00000000E+00
  0.00000000E+00  0.00000000E+00  0.00000000E+00
  0.00000000E+00  0.00000000E+00  0.00000000E+00
  0.00000000E+00  0.00000000E+00  0.00000000E+00
  0.00000000E+00  0.00000000E+00  0.00000000E+00
  0.00000000E+00  0.00000000E+00  0.00000000E+00
  0.00000000E+00  0.00000000E+00  0.00000000E+00
  0.00000000E+00  0.00000000E+00  0.00000000E+00
  0.00000000E+00  0.00000000E+00  0.00000000E+00
  0.00000000E+00  0.00000000E+00  0.00000000E+00
  0.00000000E+00  0.00000000E+00  0.00000000E+00
  0.00000000E+00  0.00000000E+00  0.00000000E+00
  0.00000000E+00  0.00000000E+00  0.00000000E+00
  0.00000000E+00  0.00000000E+00  0.00000000E+00
  0.00000000E+00  0.00000000E+00  0.00000000E+00
  0.00000000E+00  0.00000000E+00  0.00000000E+00
  0.00000000E+00  0.00000000E+00  0.00000000E+00
  0.00000000E+00  0.00000000E+00  0.00000000E+00
  0.00000000E+00  0.00000000E+00  0.00000000E+00
  0.00000000E+00  0.00000000E+00  0.00000000E+00
  0.00000000E+00  0.00000000E+00  0.00000000E+00
