System
1.0
10.285231721214862 -0.0002002927936414 -5.400218705193132
-2.8351896634306994 9.886747057882427 -5.400225483442054
0.0099513128610022 0.0132069081834311 12.514907780661277
Mg Mn O 
4 32 64 
direct
0.1945328240883872 0.8104164586278426 0.3846993419405982 Mg
0.1897621854495137 0.8135008782795244 0.8866179225201152 Mg
0.680577372784095 0.3062528949548672 0.3589253002724456 Mg
0.6981178728661745 0.8216159947917138 0.8841384878143489 Mg
1.0032846753617346 0.0065497976557785 0.2566128873415081 Mn
0.0097988371240404 0.0069804379333981 0.7637989849493485 Mn
0.9880674492783854 0.4882902503559184 0.2330288543387539 Mn
0.0165485600992625 0.5105152239105025 0.7799538980879724 Mn
0.5072076138008906 1.0011731930434542 0.2619751356508011 Mn
0.5095584670620315 0.0069287945899578 0.7614824281338795 Mn
0.4822016470378184 0.4908003728332746 0.2254449788270358 Mn
0.4985033714396742 0.4983863697864056 0.7438433974036098 Mn
0.9962177902664975 0.251395879966078 0.9952613461000536 Mn
0.9965378174445573 0.2498510790237197 0.4936409237492895 Mn
0.0138440608414429 0.7586618689324439 0.0235457623201349 Mn
0.9953554974333119 0.7452410370406611 0.4968497371884733 Mn
0.4987393585551944 0.2480269879251761 0.9997642759753816 Mn
0.5036077269382825 0.2540005370692491 0.5028307412944847 Mn
0.4947416583526695 0.7458216714485892 0.9944905086225841 Mn
0.4936379063477878 0.7377454369616682 0.4734642970659664 Mn
0.2631811477835833 0.0111019654830295 0.2713603070260759 Mn
0.2593388082304942 0.0075404053932301 0.7687776619983172 Mn
0.2447411847006764 0.4895413216091488 0.2319873869709752 Mn
0.2494062070858514 0.497872754242931 0.7512185275366884 Mn
0.7495484436739569 0.9979643911276929 0.2447031262354918 Mn
0.7534265646617402 0.0033353412764169 0.7526370203491249 Mn
0.740965417658906 0.4908298043913089 0.2307941646566835 Mn
0.7605358080573607 0.5116647806727017 0.7713454641521742 Mn
0.0032799962507811 0.0072128762768686 1.0053876898061613 Mn
0.0047971634536244 0.0082127168584605 0.515798810373341 Mn
0.007889628141077 0.5120290424118623 0.0169247250018718 Mn
0.9884570618803429 0.4849619515723881 0.4719189187461389 Mn
0.4992003569661256 0.0014562107262202 0.998882783026049 Mn
0.5090621204525698 0.0057514223120694 0.5098194374141016 Mn
0.4943851250155124 0.4947995169369279 0.9943823596028225 Mn
0.4834708716191302 0.4812726935928597 0.4652087008981086 Mn
0.36409088336109 0.3827617851881031 0.229372324816336 O
0.389247471967302 0.4042116870012128 0.7802369019148183 O
0.3982171536497857 0.9096914070051682 0.2949857439191265 O
0.4009509564514975 0.9092682635086813 0.7952397657393891 O
0.8667455014590656 0.3863285948029581 0.2357924631447205 O
0.9043395673844195 0.4201684004832138 0.8111917623762565 O
0.8721878714689467 0.8892749990549667 0.2461985441236849 O
0.8923430946723673 0.9059609144355804 0.782886889323138 O
0.3754500645689279 0.1134876709863759 0.4765639019664291 O
0.3741893883254728 0.1099213655820987 0.9757946712039726 O
0.3607345219026627 0.5963683999476878 0.4387092789433752 O
0.371858313776766 0.6090284088615612 0.9681392948628462 O
0.8617108009296649 0.1022046527280301 0.4524561044806434 O
0.8733891599470751 0.1123034604846081 0.9687535214795392 O
0.8575815413294169 0.5944127101033907 0.4406331327010607 O
0.8970097618870746 0.6384653896289939 0.0197055182057149 O
0.0905843232028819 0.10493022681399 0.4637589496799173 O
0.0979382484506193 0.1148914248704829 0.9758475355098851 O
0.0819281462051078 0.5992832240365543 0.4444195271161597 O
0.1159591949401077 0.6359930594181181 0.0189012732652905 O
0.6071578308308021 0.1256958367282919 0.4998626963853079 O
0.6049651033213784 0.1250046395483146 0.0026814896741888 O
0.5810965798974937 0.5912719206623173 0.4326186314261661 O
0.6045036354681875 0.6208181351486538 0.9912790786216831 O
0.1200002563449327 0.100533010914881 0.2390131770123531 O
0.1299916025882214 0.104262726778643 0.7514277025098539 O
0.112763911023222 0.6048238217813061 0.2304804849996925 O
0.1276850602820098 0.6121363939670703 0.7604129242932557 O
0.6120019898379895 0.1003793789760089 0.2245197301236347 O
0.6103441668464445 0.0955678976454888 0.7190249135393513 O
0.6006256576320682 0.5881870844114048 0.2028561919804803 O
0.6359061534892847 0.6205343701698892 0.764752770596445 O
0.0999525296942451 0.3669928319341689 0.2066050766656155 O
0.0991509466194173 0.3661255847386478 0.7063905480981831 O
0.1204361689684774 0.8816625075845813 0.2443040410486886 O
0.1316956176475715 0.8905034880224043 0.7607210354915611 O
0.6068248250705388 0.3682335342776921 0.2159628859849547 O
0.6087127897950041 0.3747635972620468 0.7108951159150184 O
0.6085354781394171 0.8696044985499731 0.2088028324969608 O
0.6329613395968899 0.8945681961711807 0.7578388752485885 O
0.1184548258569842 0.3911384108785018 0.0227375805114703 O
0.1280908252855711 0.3945656881307514 0.5368511418073711 O
0.1337307667534936 0.890921478498273 0.0362536217702832 O
0.132333905440159 0.886138044437304 0.5308613036451778 O
0.6178409347173878 0.3827668253791175 0.0192242866276032 O
0.6088793563863666 0.3698410391185326 0.4889381851291073 O
0.6257783236093777 0.8868046529838353 0.0197563369906067 O
0.6339997525203315 0.8956470765635771 0.5410592431017844 O
0.3942641683667644 0.1281484145268989 0.2896129693797535 O
0.3945858452330956 0.1308345300177402 0.7920537019332508 O
0.365353698421885 0.5997122536743266 0.2327506857607579 O
0.3916539923085946 0.6287596357465287 0.7859252706937191 O
0.8907057113517521 0.1253392082193998 0.2761186952189351 O
0.8942057812454764 0.1275307857163487 0.7811808421813452 O
0.86659849725024 0.6058638632611867 0.2384546683962424 O
0.9110122723667466 0.6479650026844403 0.8193551679479447 O
0.3964908739970302 0.3817426377587578 0.0144126916057625 O
0.4051812252453314 0.3891110203608852 0.5202859809935867 O
0.3912625134829427 0.8744834105577688 0.0019375176007148 O
0.3943012331356693 0.8736592128055539 0.503289886952414 O
0.9010001646861876 0.3917731854344331 0.0258545701102135 O
0.8825100846777986 0.367404554387673 0.4835052444385772 O
0.9041088656172973 0.895170093060365 0.0354024644214372 O
0.9176306953508555 0.899471334880112 0.5527143080057642 O
