System
1.0
4.924123843845335 -0.0014286265575575 -0.000316779485598
0.0020098476739064 6.08906153312095 -3.89921091757e-05
0.0007403668487993 0.0001799584551563 9.39174689878331
Li Fe P O 
4 4 4 16 
direct
0.4774331091258625 0.24998182354701326 0.16750819727619198 c
0.9774335265915717 0.749966612081386 0.33249239010450565 c
0.0225664734084285 0.25003338791861407 0.6675076098954944 c
0.5225668908741374 0.7500181764529865 0.8324918027238076 c
0.0 0.0 0.0 a
-8.47034993190811e-21 0.5 1.2557996072389418e-22 a
0.5000000000000001 1.50632307486659e-20 0.49999999999999994 a
0.5000000000000001 0.5000000000000001 0.49999999999999994 a
0.5297195922133836 0.25001535892161214 0.8220679202419542 c
0.029719877442011496 0.7500241257353334 0.677932544526806 c
0.9702801225579885 0.2499758742646667 0.3220674554731938 c
0.47028040778661623 0.749984641078387 0.17793207975804587 c
0.21961786593871166 0.25002469056166216 0.855459943509808 c
0.0984997534900632 0.7500074410887025 0.8419982980343821 c
0.5984990371672348 0.2500055234462518 0.658001176705073 c
0.719619937839341 0.7500252735096017 0.6445389651229705 c
0.1609461216417288 0.5412965589677302 0.6151319939420845 d
0.1609438078216291 0.9587546642858371 0.6151427994744714 d
0.8390561921783712 0.04124533571416259 0.384857200525529 d
0.3390561901348493 0.5412588772071334 0.11514156224556339 d
0.2803800621606592 0.24997472649039823 0.3554610348770293 c
0.4015009628327649 0.7499944765537485 0.34199882329492676 c
0.9015002465099367 0.24999255891129757 0.15800170196561766 c
0.7803821340612882 0.7499753094383378 0.14454005649019216 c
0.6609438098651507 0.4587411227928663 0.8848584377544361 d
0.33905533593736514 0.9587153410032686 0.11513360399382198 d
0.8390538783582716 0.45870344103227 0.3848680060579154 d
0.6609446640626355 0.041284658996731505 0.8848663960061781 d
