System                                  
   1.0000000000000000     
     6.2948166767548335    0.0011451588415097    1.1120586436529092
     5.6534913551669446    2.7681560748761331    1.1121222194131586
    -0.1195677927310168   -0.0276627394531300    9.7183006164231447
  Mn              Co              O             
     2     2    10
Direct
     0.9939784626796861    0.9939564435483322    0.9868561695232513
     0.1991474533699277    0.1991823470641004    0.4005059846562596
     0.5998256822955652    0.5998376426746131    0.1972957669072727
     0.8042994155754992    0.8042906754903699    0.5986191763866198
     0.0650486953297493    0.0650890220129030    0.3262037373897628
     0.5503464604564888    0.5503411881302318    0.8790925495791281
     0.9241756628424176    0.9241515888252133    0.6543236534922825
     0.1325034694893416    0.1324850187152904    0.0726874527054469
     0.7325134792056093    0.7325756450545070    0.2682843234464679
     0.3360712451087386    0.3360889260212365    0.4685397062770496
     0.8653269315947327    0.8653075487122694    0.9715542781401304
     0.2634708855599348    0.2634422710061939    0.7185802557186504
     0.4684467178016131    0.4683981764835999    0.1289176831439907
     0.6664670203197420    0.6664750878901773    0.5334441880607173

  0.00000000E+00  0.00000000E+00  0.00000000E+00
  0.00000000E+00  0.00000000E+00  0.00000000E+00
  0.00000000E+00  0.00000000E+00  0.00000000E+00
  0.00000000E+00  0.00000000E+00  0.00000000E+00
  0.00000000E+00  0.00000000E+00  0.00000000E+00
  0.00000000E+00  0.00000000E+00  0.00000000E+00
  0.00000000E+00  0.00000000E+00  0.00000000E+00
  0.00000000E+00  0.00000000E+00  0.00000000E+00
  0.00000000E+00  0.00000000E+00  0.00000000E+00
  0.00000000E+00  0.00000000E+00  0.00000000E+00
  0.00000000E+00  0.00000000E+00  0.00000000E+00
  0.00000000E+00  0.00000000E+00  0.00000000E+00
  0.00000000E+00  0.00000000E+00  0.00000000E+00
  0.00000000E+00  0.00000000E+00  0.00000000E+00
