System
1.0
6.231772571275986 -0.018453054809301 1.147428953035859
5.58839355637727 2.7577504155344683 1.1474289530358592
-0.0374811699708754 -0.0086861782541202 9.56685006608347
Mn Co O 
2 2 10 
direct
0.9970808187534675 0.9970808187534668 0.9958537918874021 Mn
0.19900449665849862 0.1990044966584986 0.40191986817979847 Mn
0.6023564533317938 0.6023564533317934 0.1990924015984645 Co
0.7997871335715689 0.7997871335715683 0.6036560735671325 Co
0.06085290367924303 0.060852903679242995 0.3360665258866505 O
0.5486443510367326 0.5486443510367321 0.8698158737497727 O
0.9409395434993328 0.9409395434993325 0.6463987878552105 O
0.14170573217930305 0.14170573217930296 0.0653819344770495 O
0.7428392023660674 0.7428392023660668 0.2639179305610927 O
0.3391264722420784 0.33912647224207826 0.4571205473509483 O
0.8599482867788195 0.8599482867788192 0.9587239354295575 O
0.2518810313947466 0.25188103139474644 0.7300365620111248 O
0.4621097414976514 0.46210974149765105 0.14093995975474868 O
0.6553454146397452 0.6553454146397449 0.5359807331180843 O
