System                                  
   1.0000000000000000     
     4.8066390420929590   -0.0066457917417986   -5.0699280577795021
    -0.7692877841206008    4.7486649602087088   -5.0707935977144842
     0.0063602487162357    0.0062047475984555    6.9857651084708907
  B               F             
     2    10
Direct
     0.0000026020027934    0.0001039745935779   -0.0000029426566209
     0.7499537016543447    0.2498239634878360    0.4998609375230691
     0.2499430132871754    0.7500222731747389    0.4999623640497784
     0.5000013192090891    0.5000346033328534    0.0000266745464153
     0.0665940037538505    0.8415013907765300    0.7749382981395673
     0.5912998431162840    0.3165490225750932    0.2745509319802786
     0.0418687851925009    0.3165871692804363    0.7252521255853521
     0.0665711034692448    0.2914629862446935    0.2249916954196166
     0.6834415419794041    0.4086377996569985    0.7253914391624540
     0.1586294089732827    0.9334607645284657    0.2252306241279328
     0.7082448190329254    0.9334000174217574    0.7748233859731826
     0.6834498583291049    0.9584160349270193    0.2749744661489743

  0.00000000E+00  0.00000000E+00  0.00000000E+00
  0.00000000E+00  0.00000000E+00  0.00000000E+00
  0.00000000E+00  0.00000000E+00  0.00000000E+00
  0.00000000E+00  0.00000000E+00  0.00000000E+00
  0.00000000E+00  0.00000000E+00  0.00000000E+00
  0.00000000E+00  0.00000000E+00  0.00000000E+00
  0.00000000E+00  0.00000000E+00  0.00000000E+00
  0.00000000E+00  0.00000000E+00  0.00000000E+00
  0.00000000E+00  0.00000000E+00  0.00000000E+00
  0.00000000E+00  0.00000000E+00  0.00000000E+00
  0.00000000E+00  0.00000000E+00  0.00000000E+00
  0.00000000E+00  0.00000000E+00  0.00000000E+00
