System                                  
   1.0000000000000000     
     9.9607399999999995    0.0001100000000000   -0.0000600000000000
     0.0000400000000000   12.9470899999999993    0.0015800000000000
     0.0000400000000000   -0.0010200000000000    9.4285399999999999
  Li              Mn              P               O             
    10    16    16    64
Direct
     0.5253925715969343    0.6207477613798974    0.6803093102724143
     0.2319815111798280    0.1221619820403590    0.1755173470011975
     0.7295872737814625    0.1234931239344846    0.1723220879787511
     0.4812586879614326    0.8745095292610502    0.3228504147735857
     0.9997284183019689    0.4095313015868363    0.2917950496096717
     0.9791851157370995    0.8734651986509860    0.3230621214370005
     0.2743781537173552    0.3764481077640265    0.8281527656022415
     0.2473832254415007    0.9048836867901354    0.8007411732533695
     0.7705276298333308    0.3789686692849186    0.8256771979845039
     0.7510266449990126    0.9044926967240148    0.7991207625581287
     0.5004460051097493    0.2517876084936021    0.0002567648686129
     0.5040783581735880    0.7453090255136441    0.0009837908399272
     0.0006962660543386    0.2516566370414231    0.0010955196636808
     0.0021852979847339    0.7479230247349520    0.9984171856472517
     0.2530719223541220    0.2498515751384363    0.5063666285481847
     0.2462738627653714    0.7485052500559348    0.4962437021459895
     0.7475626649320756    0.2499385670981630    0.5017408750537259
     0.7527796202188366    0.7459848538135091    0.5014034845870023
     0.9930855424714224    0.0051751520274482    0.9938653255203219
     0.0163921037266350    0.5066705703853092    0.9887744393409452
     0.4930721188520641    0.0042357544230731    0.9951781793219930
     0.5048253353183499    0.4983191249402017    0.0140071336606854
     0.2534546506328313    0.5062132948216814    0.4924822523081423
     0.2386870319233884    0.0032836987981315    0.4984310526482720
     0.7506508834674666    0.5065221263117932    0.4892242427712058
     0.7384913181930463    0.0033480904820584    0.4979338588113053
     0.2397157091580520    0.3630495003252680    0.1857384570270683
     0.2292133321960488    0.8822470824129772    0.1712331280003947
     0.7368544141017752    0.3615435266052965    0.1869898170151124
     0.7291515329038412    0.8824207869437051    0.1728967862406667
     0.0273753045390625    0.3799770014558626    0.6655196226650536
     0.0164446354301800    0.8623317571335488    0.6832607381142320
     0.5184999776551584    0.3823257237377293    0.6715538450646797
     0.5132730114806682    0.8607375140829376    0.6870693539427307
     0.2558924665078773    0.1343266612764407    0.8175848549509099
     0.2716091736461967    0.6172703925281283    0.8263176291948002
     0.7551770754489853    0.1359282830453961    0.8166927536579484
     0.7703836738086336    0.6185980421882094    0.8274034734477522
     0.4778242713465946    0.1156772721054467    0.3297400692566788
     0.4848996812192818    0.6348426083031151    0.3223939446070304
     0.9777271493058702    0.1153538706861793    0.3295894114026252
     0.9950522936841817    0.6338703515691519    0.3142011542764593
     0.0901192323318835    0.2822701378442958    0.5984151012142022
     0.0848734597586031    0.7666617290727658    0.6221532842071179
     0.5902459307099129    0.2895709603626357    0.6020428551900965
     0.5742718502252622    0.7609098412650750    0.6289847929368400
     0.1737166645653938    0.2610765475974997    0.1366180129883665
     0.1584171821581965    0.7898920229246873    0.1004402162741611
     0.6684713268994756    0.2617397317110332    0.1329517727637109
     0.6566485242373945    0.7886391423753271    0.1063243520526047
     0.3272866140106857    0.2312444499096407    0.8758301193750692
     0.3479950996019895    0.7129828093182904    0.8868844304252397
     0.8268443817506802    0.2333383892816600    0.8735085651489426
     0.8421470683746571    0.7144079623428738    0.8933720397330221
     0.4036692381801778    0.2081269822714071    0.3974235299650101
     0.4175001500765667    0.7354973488915161    0.3755821441242161
     0.9045386862209495    0.2084706965644717    0.3978422150251233
     0.9257626740673151    0.7323676009348434    0.3695374627808480
     0.3264740539014477    0.0331946331507073    0.8642212033570325
     0.3323158034919522    0.5164210909246221    0.8856232262992884
     0.8268330327479982    0.0349455314473332    0.8630400742328610
     0.8330955027040053    0.5171657526836561    0.8820564131319162
     0.4220228239698360    0.0124853577808193    0.3875570403143941
     0.4058025406343416    0.5395915083204686    0.3793220604636970
     0.9209562804975280    0.0125457264247422    0.3873991016885435
     0.9226064408755110    0.5342957478397761    0.3609805874310975
     0.3840141088695811    0.3703594352459860    0.1273430995151715
     0.3820836638905158    0.8777193388040673    0.1350178521950208
     0.8878174630931555    0.3613230996973272    0.1385536096607290
     0.8816404318890261    0.8779228283357131    0.1336779407650067
     0.2671469589962660    0.1359349676571514    0.6490979183330620
     0.3013221469625549    0.6180863240351022    0.6595690302119701
     0.7626854049164418    0.1372475102985430    0.6481125489127052
     0.7819424183664265    0.6240269876223845    0.6625400167790217
     0.1094408952791202    0.1325135184853666    0.8769558391875629
     0.1228640859803160    0.6254527616120238    0.8694140383590495
     0.6092648073153010    0.1323706296210931    0.8780833887503714
     0.6180115416658878    0.6231702801936305    0.8738237378234709
     0.1309016895099589    0.1212264838699554    0.3636438411569368
     0.1435221133456810    0.6284319712998526    0.3715026547640236
     0.6311988582832948    0.1222994685021359    0.3641104603214412
     0.6307991947504417    0.6288823493612286    0.3779609547585197
     0.0592784585698965    0.3791946431777742    0.8290710523651716
     0.0317188974710274    0.8616366539220114    0.8541876364425589
     0.5451692200684143    0.3751010825942807    0.8365299949334873
     0.5312263124669723    0.8619209915333494    0.8575500946271292
     0.2266410698767345    0.3672318613851319    0.3585573468519143
     0.1997627892217516    0.8761513193651023    0.3362190833182609
     0.7314904311176617    0.3634504181955838    0.3574860460813975
     0.7015086866137366    0.8763762549256563    0.3381214257029372
     0.1489615989462232    0.4534255744971432    0.1425200022031606
     0.1693631721192582    0.9847504071694694    0.1158262857108563
     0.6657398885031739    0.4574543789148114    0.1340369167901085
     0.6685867651462314    0.9843510931573483    0.1163726997137918
     0.4471944939013512    0.1213595103818941    0.1653458845388370
     0.4768228112751517    0.6330810956879893    0.1541896773407258
     0.9472825665646304    0.1212768410057310    0.1650778286708947
     0.9874435796349251    0.6357802190210647    0.1447662112003530
     0.3644241185898250    0.3773937783899192    0.6344386381890182
     0.3636989455103049    0.8700691843028422    0.6411922419968309
     0.8747975330203640    0.3813010456739337    0.6333903522342139
     0.8663459318485511    0.8672342246737562    0.6384732849110486
     0.0959530150335781    0.4763367360750990    0.5981081821264583
     0.0967056132155272    0.9599249093930625    0.6453370773642363
     0.5780488639619425    0.4843047578116024    0.6181610958205356
     0.6001344218767350    0.9536782086236129    0.6446780398600148

  0.00000000E+00  0.00000000E+00  0.00000000E+00
  0.00000000E+00  0.00000000E+00  0.00000000E+00
  0.00000000E+00  0.00000000E+00  0.00000000E+00
  0.00000000E+00  0.00000000E+00  0.00000000E+00
  0.00000000E+00  0.00000000E+00  0.00000000E+00
  0.00000000E+00  0.00000000E+00  0.00000000E+00
  0.00000000E+00  0.00000000E+00  0.00000000E+00
  0.00000000E+00  0.00000000E+00  0.00000000E+00
  0.00000000E+00  0.00000000E+00  0.00000000E+00
  0.00000000E+00  0.00000000E+00  0.00000000E+00
  0.00000000E+00  0.00000000E+00  0.00000000E+00
  0.00000000E+00  0.00000000E+00  0.00000000E+00
  0.00000000E+00  0.00000000E+00  0.00000000E+00
  0.00000000E+00  0.00000000E+00  0.00000000E+00
  0.00000000E+00  0.00000000E+00  0.00000000E+00
  0.00000000E+00  0.00000000E+00  0.00000000E+00
  0.00000000E+00  0.00000000E+00  0.00000000E+00
  0.00000000E+00  0.00000000E+00  0.00000000E+00
  0.00000000E+00  0.00000000E+00  0.00000000E+00
  0.00000000E+00  0.00000000E+00  0.00000000E+00
  0.00000000E+00  0.00000000E+00  0.00000000E+00
  0.00000000E+00  0.00000000E+00  0.00000000E+00
  0.00000000E+00  0.00000000E+00  0.00000000E+00
  0.00000000E+00  0.00000000E+00  0.00000000E+00
  0.00000000E+00  0.00000000E+00  0.00000000E+00
  0.00000000E+00  0.00000000E+00  0.00000000E+00
  0.00000000E+00  0.00000000E+00  0.00000000E+00
  0.00000000E+00  0.00000000E+00  0.00000000E+00
  0.00000000E+00  0.00000000E+00  0.00000000E+00
  0.00000000E+00  0.00000000E+00  0.00000000E+00
  0.00000000E+00  0.00000000E+00  0.00000000E+00
  0.00000000E+00  0.00000000E+00  0.00000000E+00
  0.00000000E+00  0.00000000E+00  0.00000000E+00
  0.00000000E+00  0.00000000E+00  0.00000000E+00
  0.00000000E+00  0.00000000E+00  0.00000000E+00
  0.00000000E+00  0.00000000E+00  0.00000000E+00
  0.00000000E+00  0.00000000E+00  0.00000000E+00
  0.00000000E+00  0.00000000E+00  0.00000000E+00
  0.00000000E+00  0.00000000E+00  0.00000000E+00
  0.00000000E+00  0.00000000E+00  0.00000000E+00
  0.00000000E+00  0.00000000E+00  0.00000000E+00
  0.00000000E+00  0.00000000E+00  0.00000000E+00
  0.00000000E+00  0.00000000E+00  0.00000000E+00
  0.00000000E+00  0.00000000E+00  0.00000000E+00
  0.00000000E+00  0.00000000E+00  0.00000000E+00
  0.00000000E+00  0.00000000E+00  0.00000000E+00
  0.00000000E+00  0.00000000E+00  0.00000000E+00
  0.00000000E+00  0.00000000E+00  0.00000000E+00
  0.00000000E+00  0.00000000E+00  0.00000000E+00
  0.00000000E+00  0.00000000E+00  0.00000000E+00
  0.00000000E+00  0.00000000E+00  0.00000000E+00
  0.00000000E+00  0.00000000E+00  0.00000000E+00
  0.00000000E+00  0.00000000E+00  0.00000000E+00
  0.00000000E+00  0.00000000E+00  0.00000000E+00
  0.00000000E+00  0.00000000E+00  0.00000000E+00
  0.00000000E+00  0.00000000E+00  0.00000000E+00
  0.00000000E+00  0.00000000E+00  0.00000000E+00
  0.00000000E+00  0.00000000E+00  0.00000000E+00
  0.00000000E+00  0.00000000E+00  0.00000000E+00
  0.00000000E+00  0.00000000E+00  0.00000000E+00
  0.00000000E+00  0.00000000E+00  0.00000000E+00
  0.00000000E+00  0.00000000E+00  0.00000000E+00
  0.00000000E+00  0.00000000E+00  0.00000000E+00
  0.00000000E+00  0.00000000E+00  0.00000000E+00
  0.00000000E+00  0.00000000E+00  0.00000000E+00
  0.00000000E+00  0.00000000E+00  0.00000000E+00
  0.00000000E+00  0.00000000E+00  0.00000000E+00
  0.00000000E+00  0.00000000E+00  0.00000000E+00
  0.00000000E+00  0.00000000E+00  0.00000000E+00
  0.00000000E+00  0.00000000E+00  0.00000000E+00
  0.00000000E+00  0.00000000E+00  0.00000000E+00
  0.00000000E+00  0.00000000E+00  0.00000000E+00
  0.00000000E+00  0.00000000E+00  0.00000000E+00
  0.00000000E+00  0.00000000E+00  0.00000000E+00
  0.00000000E+00  0.00000000E+00  0.00000000E+00
  0.00000000E+00  0.00000000E+00  0.00000000E+00
  0.00000000E+00  0.00000000E+00  0.00000000E+00
  0.00000000E+00  0.00000000E+00  0.00000000E+00
  0.00000000E+00  0.00000000E+00  0.00000000E+00
  0.00000000E+00  0.00000000E+00  0.00000000E+00
  0.00000000E+00  0.00000000E+00  0.00000000E+00
  0.00000000E+00  0.00000000E+00  0.00000000E+00
  0.00000000E+00  0.00000000E+00  0.00000000E+00
  0.00000000E+00  0.00000000E+00  0.00000000E+00
  0.00000000E+00  0.00000000E+00  0.00000000E+00
  0.00000000E+00  0.00000000E+00  0.00000000E+00
  0.00000000E+00  0.00000000E+00  0.00000000E+00
  0.00000000E+00  0.00000000E+00  0.00000000E+00
  0.00000000E+00  0.00000000E+00  0.00000000E+00
  0.00000000E+00  0.00000000E+00  0.00000000E+00
  0.00000000E+00  0.00000000E+00  0.00000000E+00
  0.00000000E+00  0.00000000E+00  0.00000000E+00
  0.00000000E+00  0.00000000E+00  0.00000000E+00
  0.00000000E+00  0.00000000E+00  0.00000000E+00
  0.00000000E+00  0.00000000E+00  0.00000000E+00
  0.00000000E+00  0.00000000E+00  0.00000000E+00
  0.00000000E+00  0.00000000E+00  0.00000000E+00
  0.00000000E+00  0.00000000E+00  0.00000000E+00
  0.00000000E+00  0.00000000E+00  0.00000000E+00
  0.00000000E+00  0.00000000E+00  0.00000000E+00
  0.00000000E+00  0.00000000E+00  0.00000000E+00
  0.00000000E+00  0.00000000E+00  0.00000000E+00
  0.00000000E+00  0.00000000E+00  0.00000000E+00
  0.00000000E+00  0.00000000E+00  0.00000000E+00
  0.00000000E+00  0.00000000E+00  0.00000000E+00
  0.00000000E+00  0.00000000E+00  0.00000000E+00
