System                                  
   1.0000000000000000     
     0.0000000000000000    3.4179130774011557    3.4179130774011557
     3.4179130774011557   -0.0000000000000000    3.4179130774011557
     3.4179130774011557    3.4179130774011557   -0.0000000000000000
  Hg              Pb            
     1     1
Direct
     0.0000000000000000    0.0000000000000000    0.0000000000000000
     0.7500000000000000    0.7500000000000000    0.7500000000000000

  0.00000000E+00  0.00000000E+00  0.00000000E+00
  0.00000000E+00  0.00000000E+00  0.00000000E+00
