System                                  
   1.0000000000000000     
     5.4566222850750794    0.1239035068700043    8.4547043654877498
     2.5227793134042900    4.9480839422878171    8.4973807262821843
     0.0471109604962526    0.1197258465067210   10.1139633738274242
  Li              Co              O             
     2     8    16
Direct
     0.7452610655623317    0.2566521146464883    0.7492702544501951
     0.7452117098816677    0.7560101413118075    0.7500919052943669
     0.0028799605748614    0.0009802514244765    0.0015937867309122
     0.0020924541043239    0.9990351184125608    0.4994619981459236
     0.0030458188257123    0.5007960993107807    0.0018071328520334
     0.0018673548157581    0.4993995924385976    0.4991026239469916
     0.5008554039259918    0.9986029474181468    0.0005222067483372
     0.4989340270236283    0.9973105509897370    0.4975778131143431
     0.5005987759630042    0.4989114693476480    0.0002022021429087
     0.4990671305663804    0.4970716763413698    0.4978605626649847
     0.1298244493229762    0.1396627122494825    0.1324560815145564
     0.1188434119626560    0.1376562611949402    0.6418827184555266
     0.1295920629678984    0.6399167032000704    0.1321610636752353
     0.1190120387421227    0.6374099686478634    0.6421835378396953
     0.6398153415957164    0.1366558184888651    0.1212395200440328
     0.6362199922403881    0.1225646093922814    0.6376644349724887
     0.6399978423549920    0.6364174444348245    0.1215387712856564
     0.6360153066345900    0.6228540913205425    0.6373223589190885
     0.3688624406669415    0.3633061159986921    0.3640071160783367
     0.3771208623952780    0.3601863631389135    0.8637006126797960
     0.3690664639868703    0.8630349853399029    0.3643407024979613
     0.3769548587035441    0.8603860573993833    0.8634414709179091
     0.8689883637325250    0.3597878491464478    0.3722559004638031
     0.8692264366396798    0.3705689030411048    0.8643355247572565
     0.8688261898976408    0.8600165589797363    0.3719523397388614
     0.8694704692427113    0.8702732112984127    0.8646300736676487

  0.00000000E+00  0.00000000E+00  0.00000000E+00
  0.00000000E+00  0.00000000E+00  0.00000000E+00
  0.00000000E+00  0.00000000E+00  0.00000000E+00
  0.00000000E+00  0.00000000E+00  0.00000000E+00
  0.00000000E+00  0.00000000E+00  0.00000000E+00
  0.00000000E+00  0.00000000E+00  0.00000000E+00
  0.00000000E+00  0.00000000E+00  0.00000000E+00
  0.00000000E+00  0.00000000E+00  0.00000000E+00
  0.00000000E+00  0.00000000E+00  0.00000000E+00
  0.00000000E+00  0.00000000E+00  0.00000000E+00
  0.00000000E+00  0.00000000E+00  0.00000000E+00
  0.00000000E+00  0.00000000E+00  0.00000000E+00
  0.00000000E+00  0.00000000E+00  0.00000000E+00
  0.00000000E+00  0.00000000E+00  0.00000000E+00
  0.00000000E+00  0.00000000E+00  0.00000000E+00
  0.00000000E+00  0.00000000E+00  0.00000000E+00
  0.00000000E+00  0.00000000E+00  0.00000000E+00
  0.00000000E+00  0.00000000E+00  0.00000000E+00
  0.00000000E+00  0.00000000E+00  0.00000000E+00
  0.00000000E+00  0.00000000E+00  0.00000000E+00
  0.00000000E+00  0.00000000E+00  0.00000000E+00
  0.00000000E+00  0.00000000E+00  0.00000000E+00
  0.00000000E+00  0.00000000E+00  0.00000000E+00
  0.00000000E+00  0.00000000E+00  0.00000000E+00
  0.00000000E+00  0.00000000E+00  0.00000000E+00
  0.00000000E+00  0.00000000E+00  0.00000000E+00
