System                                  
   1.0000000000000000     
    10.2852317212148616   -0.0002002927936414   -5.4002187051931321
    -2.8351896634306994    9.8867470578824275   -5.4002254834420542
     0.0099513128610022    0.0132069081834311   12.5149077806612770
  Mg              Mn              O             
    10    32    64
Direct
     0.1909052795077186    0.3081980587586625    0.3795414970272576
     0.1941978882901381    0.3163842579446270    0.8824965140859672
     0.1881916099906844    0.8137267865312539    0.3738469013489241
     0.1863830883810780    0.8147977716982873    0.8832727638935577
     0.6817473757488386    0.3127324038671412    0.3700740813533597
     0.6926804243206354    0.8145086957505372    0.8741786656039535
     0.3139491679686882    0.6873201877376904    0.6264958477234917
     0.8119312403636694    0.1860883769180640    0.1118687888128322
     0.8105732664964206    0.1905988925673044    0.6238047363086435
     0.8111651665895974    0.6869591390135511    0.1284482587490215
     0.9950270088747811    0.9984675337351845    0.2445199067229805
    -0.0037366209989496    0.9972180020596837    0.7471154444771857
     1.0041839517455891    0.4964814392352585    0.2503772950841771
     0.0069484684599411    0.5082544515910840    0.7642215989724069
     0.4971078291566625   -0.0050764654101707    0.2465260821990176
     0.4977229125316197    0.0040206233396390    0.7482272386139535
     0.4917405914254319    0.4984884009018683    0.2444690675061725
     0.5081079349990012    0.5038894386482232    0.7603973683958666
     0.9958249059402676    0.2462083052296098    0.9918569047368498
     0.9982860168645358    0.2489997956259132    0.4965903185947334
     0.0075064211473014    0.7492871680480160    0.0120689993064360
     0.9931559739770616    0.7467706823384950    0.4927662996137812
     0.5041970814989106    0.2503532377211787    0.0065781059624622
     0.4995897443553112    0.2528203995268312    0.5026934432563482
     0.5002298306237922    0.7526715629007057    0.0009700526554971
     0.4970372000215090    0.7432903167059661    0.4866403129914351
     0.2586384307595042    0.0016552906063662    0.2587187420898409
     0.2557923641322822    0.0094213248853270    0.7666005010234928
     0.2515402609782571    0.4951717020677389    0.2477500035406996
     0.2582797417782889    0.5086560852754128    0.7691886857915794
     0.7448041215480067   -0.0029066596186521    0.2401692267935478
     0.7422219596211362    0.9945908386751661    0.7357998310443603
     0.7454276985639715    0.4946790620154509    0.2388279925802508
     0.7523408326231704    0.5058590245814435    0.7571193397551226
     0.9970344907889127    0.9947088861122012    0.9903784116485471
     0.0006385936880218    0.0006741089913761    0.5008269806564665
     0.0046450169239866    0.5048351369160391    0.0109899317861683
     0.9922695464410295    0.4926430925066851    0.4889158033995203
     0.5009459824055719    1.0018161936665666    0.0006278879160175
     0.4998648917767697    1.0003976711718661    0.4998713023265602
     0.5060718612444555    0.5096843286727425    0.0112829874357444
     0.4969139839402654    0.4954481235822084    0.4908538302176380
     0.3784999243540623    0.3920771678550379    0.2521647800572208
     0.4005328348367924    0.4161854862757176    0.8037717796674324
     0.3932953096133769    0.9036794621896412    0.2881077257570624
     0.3750775457431225    0.8903927360501054    0.7502844411094466
     0.8764483852273303    0.3850580449990034    0.2457256966910212
     0.8780537275813820    0.3924757352421018    0.7566694769582190
     0.8725771937872796    0.8875318381846548    0.2446806770209775
     0.8733701474206155    0.8956647225414349    0.7531555164853979
     0.3671540953807033    0.1037326627297473    0.4637464392099930
     0.3944933911827080    0.1256208703598295   -0.0007363280382884
     0.3889562929376141    0.6250615452026792    0.5001059674295149
     0.3964175840460419    0.6304998322831064    0.0027253762519010
     0.8855410191182176    0.1238023958743701    0.4952647557977801
     0.8674510254957675    0.1098309051046634    0.9677591837186474
     0.8639482976900810    0.5977079002811108    0.4486689348512851
     0.8916804970959232    0.6305576200979536    0.0095515269955245
     0.0838104196569740    0.0986205157946562    0.4478997911914978
     0.0863704000092681    0.1014842154322788    0.9561285774931156
     0.1032176327987682    0.6102497655799513    0.4737886724965576
     0.1078820043394092    0.6256707610848417    0.0035096369545269
     0.6093533916801971    0.1246842785235972    0.4997710973854897
     0.6133988701904363    0.1268095631470219   -0.0011223866673061
     0.5887516398843085    0.6005575302159178    0.4502338232680864
     0.6132196978366720    0.6298098480747512    0.0038184477783432
     0.1219525538013618    0.1059473547557010    0.2442183000142907
     0.1246645613032228    0.1140180914070833    0.7520473674911756
     0.1257215888891955    0.6107415270613552    0.2543203886298323
     0.1250908987223404    0.6131924519917950    0.7497540045379809
     0.6230824546279409    0.1100855350898565    0.2457785822022598
     0.6028946024909122    0.0930752452782766    0.7092108636557214
     0.6135286849651637    0.5945975719086962    0.2203649151969092
     0.6257714299733269    0.6160203103327048    0.7500276818732166
     0.1225601792311685    0.3820394552036488    0.2496373689384246
     0.1243027597038573    0.3868678335771900    0.7500630826975103
     0.1122647393624617    0.8752659931761362    0.2316736773466121
     0.1235622533701191    0.8873906058775467    0.7515572267463418
     0.6159144722652431    0.3728308540825120    0.2259478798333530
     0.6187177805519433    0.3880118694217332    0.7350895484605635
     0.6048216491914241    0.8685434137603492    0.2049060011094830
     0.6251462076581055    0.8908957011420873    0.7477927293756099
     0.1120477069882605    0.3744187681630242    0.0020716134239990
     0.1148036589540606    0.3778961854487233    0.5054639128549779
     0.1289384851602541    0.8847127322763562    0.0286938555584113
     0.1102529191401136    0.8733742294473512    0.4982919829922031
     0.6274781918970274    0.3921559540525312    0.0329130926499304
     0.6139980969417153    0.3770279266501694    0.5010851372660696
     0.6122646800433016    0.8752018373281836    0.9967073082144943
     0.6282271753627515    0.8936951480576966    0.5317040999395735
     0.3770652817460209    0.1064053398875896    0.2587200435293470
     0.3983450239597948    0.1387821600326915    0.8003187934843472
     0.3767967178292819    0.6086228117073478    0.2532228612932296
     0.3889930043943664    0.6316053901966100    0.7783338936652476
     0.8741043075827818    0.1103428803555755    0.2405936977982288
     0.8716133199975211    0.1104535049944007    0.7458899421417461
     0.8776709785849253    0.6082351474294594    0.2492430931140131
     0.9050133155309282    0.6437676557780850    0.8088588740866769
     0.3984256030879850    0.3867284129939456    0.0225214435271566
     0.3898497927215121    0.3804865037880511    0.5073382267704314
     0.3883320948703942    0.8743636622471389    0.0004269566977053
     0.3895995078096703    0.8744886093307767    0.4992226748575864
     0.9141825268667576    0.3951847373138989    0.0470454099063999
     0.8857441781926216    0.3748001128051307    0.4997986454233800
     0.8991211179046553    0.8887629963627758    0.0251857952797508
     0.9120961396250342    0.8961285506294699    0.5411623081494510

  0.00000000E+00  0.00000000E+00  0.00000000E+00
  0.00000000E+00  0.00000000E+00  0.00000000E+00
  0.00000000E+00  0.00000000E+00  0.00000000E+00
  0.00000000E+00  0.00000000E+00  0.00000000E+00
  0.00000000E+00  0.00000000E+00  0.00000000E+00
  0.00000000E+00  0.00000000E+00  0.00000000E+00
  0.00000000E+00  0.00000000E+00  0.00000000E+00
  0.00000000E+00  0.00000000E+00  0.00000000E+00
  0.00000000E+00  0.00000000E+00  0.00000000E+00
  0.00000000E+00  0.00000000E+00  0.00000000E+00
  0.00000000E+00  0.00000000E+00  0.00000000E+00
  0.00000000E+00  0.00000000E+00  0.00000000E+00
  0.00000000E+00  0.00000000E+00  0.00000000E+00
  0.00000000E+00  0.00000000E+00  0.00000000E+00
  0.00000000E+00  0.00000000E+00  0.00000000E+00
  0.00000000E+00  0.00000000E+00  0.00000000E+00
  0.00000000E+00  0.00000000E+00  0.00000000E+00
  0.00000000E+00  0.00000000E+00  0.00000000E+00
  0.00000000E+00  0.00000000E+00  0.00000000E+00
  0.00000000E+00  0.00000000E+00  0.00000000E+00
  0.00000000E+00  0.00000000E+00  0.00000000E+00
  0.00000000E+00  0.00000000E+00  0.00000000E+00
  0.00000000E+00  0.00000000E+00  0.00000000E+00
  0.00000000E+00  0.00000000E+00  0.00000000E+00
  0.00000000E+00  0.00000000E+00  0.00000000E+00
  0.00000000E+00  0.00000000E+00  0.00000000E+00
  0.00000000E+00  0.00000000E+00  0.00000000E+00
  0.00000000E+00  0.00000000E+00  0.00000000E+00
  0.00000000E+00  0.00000000E+00  0.00000000E+00
  0.00000000E+00  0.00000000E+00  0.00000000E+00
  0.00000000E+00  0.00000000E+00  0.00000000E+00
  0.00000000E+00  0.00000000E+00  0.00000000E+00
  0.00000000E+00  0.00000000E+00  0.00000000E+00
  0.00000000E+00  0.00000000E+00  0.00000000E+00
  0.00000000E+00  0.00000000E+00  0.00000000E+00
  0.00000000E+00  0.00000000E+00  0.00000000E+00
  0.00000000E+00  0.00000000E+00  0.00000000E+00
  0.00000000E+00  0.00000000E+00  0.00000000E+00
  0.00000000E+00  0.00000000E+00  0.00000000E+00
  0.00000000E+00  0.00000000E+00  0.00000000E+00
  0.00000000E+00  0.00000000E+00  0.00000000E+00
  0.00000000E+00  0.00000000E+00  0.00000000E+00
  0.00000000E+00  0.00000000E+00  0.00000000E+00
  0.00000000E+00  0.00000000E+00  0.00000000E+00
  0.00000000E+00  0.00000000E+00  0.00000000E+00
  0.00000000E+00  0.00000000E+00  0.00000000E+00
  0.00000000E+00  0.00000000E+00  0.00000000E+00
  0.00000000E+00  0.00000000E+00  0.00000000E+00
  0.00000000E+00  0.00000000E+00  0.00000000E+00
  0.00000000E+00  0.00000000E+00  0.00000000E+00
  0.00000000E+00  0.00000000E+00  0.00000000E+00
  0.00000000E+00  0.00000000E+00  0.00000000E+00
  0.00000000E+00  0.00000000E+00  0.00000000E+00
  0.00000000E+00  0.00000000E+00  0.00000000E+00
  0.00000000E+00  0.00000000E+00  0.00000000E+00
  0.00000000E+00  0.00000000E+00  0.00000000E+00
  0.00000000E+00  0.00000000E+00  0.00000000E+00
  0.00000000E+00  0.00000000E+00  0.00000000E+00
  0.00000000E+00  0.00000000E+00  0.00000000E+00
  0.00000000E+00  0.00000000E+00  0.00000000E+00
  0.00000000E+00  0.00000000E+00  0.00000000E+00
  0.00000000E+00  0.00000000E+00  0.00000000E+00
  0.00000000E+00  0.00000000E+00  0.00000000E+00
  0.00000000E+00  0.00000000E+00  0.00000000E+00
  0.00000000E+00  0.00000000E+00  0.00000000E+00
  0.00000000E+00  0.00000000E+00  0.00000000E+00
  0.00000000E+00  0.00000000E+00  0.00000000E+00
  0.00000000E+00  0.00000000E+00  0.00000000E+00
  0.00000000E+00  0.00000000E+00  0.00000000E+00
  0.00000000E+00  0.00000000E+00  0.00000000E+00
  0.00000000E+00  0.00000000E+00  0.00000000E+00
  0.00000000E+00  0.00000000E+00  0.00000000E+00
  0.00000000E+00  0.00000000E+00  0.00000000E+00
  0.00000000E+00  0.00000000E+00  0.00000000E+00
  0.00000000E+00  0.00000000E+00  0.00000000E+00
  0.00000000E+00  0.00000000E+00  0.00000000E+00
  0.00000000E+00  0.00000000E+00  0.00000000E+00
  0.00000000E+00  0.00000000E+00  0.00000000E+00
  0.00000000E+00  0.00000000E+00  0.00000000E+00
  0.00000000E+00  0.00000000E+00  0.00000000E+00
  0.00000000E+00  0.00000000E+00  0.00000000E+00
  0.00000000E+00  0.00000000E+00  0.00000000E+00
  0.00000000E+00  0.00000000E+00  0.00000000E+00
  0.00000000E+00  0.00000000E+00  0.00000000E+00
  0.00000000E+00  0.00000000E+00  0.00000000E+00
  0.00000000E+00  0.00000000E+00  0.00000000E+00
  0.00000000E+00  0.00000000E+00  0.00000000E+00
  0.00000000E+00  0.00000000E+00  0.00000000E+00
  0.00000000E+00  0.00000000E+00  0.00000000E+00
  0.00000000E+00  0.00000000E+00  0.00000000E+00
  0.00000000E+00  0.00000000E+00  0.00000000E+00
  0.00000000E+00  0.00000000E+00  0.00000000E+00
  0.00000000E+00  0.00000000E+00  0.00000000E+00
  0.00000000E+00  0.00000000E+00  0.00000000E+00
  0.00000000E+00  0.00000000E+00  0.00000000E+00
  0.00000000E+00  0.00000000E+00  0.00000000E+00
  0.00000000E+00  0.00000000E+00  0.00000000E+00
  0.00000000E+00  0.00000000E+00  0.00000000E+00
  0.00000000E+00  0.00000000E+00  0.00000000E+00
  0.00000000E+00  0.00000000E+00  0.00000000E+00
  0.00000000E+00  0.00000000E+00  0.00000000E+00
  0.00000000E+00  0.00000000E+00  0.00000000E+00
  0.00000000E+00  0.00000000E+00  0.00000000E+00
  0.00000000E+00  0.00000000E+00  0.00000000E+00
  0.00000000E+00  0.00000000E+00  0.00000000E+00
  0.00000000E+00  0.00000000E+00  0.00000000E+00
