System                                  
   1.0000000000000000     
     5.5551900540663404    0.0326027420088444    9.8005115987578577
     2.5886386106021835    4.9154753734110823    9.8004085335495184
     0.1505276664718455    0.0916720974096841   11.3695772161112494
  Na              Co              O             
     4     8    16
Direct
     0.2500761339088039    0.7502070506261624    0.2496517144098674
     0.2499460376012928    0.7500755007437848    0.7499378043469743
     0.7502149095981027    0.2500779146963340    0.2496423505451414
     0.7500775411050178    0.2499446765137950    0.7499376694174777
     0.0000787398890213    0.0000777429496598    0.0004853856108005
    -0.0002328027885326   -0.0002322537083727    0.4996926836383705
    -0.0001509372592601    0.4998478768137196   -0.0004075948150775
     0.0000359351703192    0.5000368450141275    0.5005556839707537
     0.4998474825093233   -0.0001503243273050   -0.0004079723835133
     0.5000375425120184    0.0000349358567747    0.5005561993251768
     0.5000802873203785    0.5000790563707874    0.0004805255973375
     0.4997647880860837    0.4997651727193643    0.4996966599306137
     0.1315646612390713    0.1315630793221591    0.1451245456605966
     0.1316922679461653    0.1316904843050091    0.6461227639303825
     0.1371323721205503    0.6371478479292015    0.1362034670445561
     0.1368145190033554    0.6368230872895777    0.6354352513055972
     0.6371497286379212    0.1371307457261771    0.1362036007548255
     0.6368232671055919    0.1368147508562801    0.6354346842332244
     0.6315563728858055    0.6315559276522813    0.1451274621142216
     0.6316756890321327    0.6316733902624705    0.6461565589037576
     0.3683308092980312    0.3683303652332240    0.3549978090331770
     0.3681989601939993    0.3682006436113218    0.8539946752979074
     0.3627082527011865    0.8627114835643240    0.3639755378745717
     0.3630323802877934    0.8630551413543008    0.8647051377208244
     0.8627101359874595    0.3627095131730543    0.3639755907589373
     0.8630551662788321    0.3630329157524504    0.8647046730664314
     0.8683190848182064    0.8683199570793639    0.3550188374996375
     0.8681888989186241    0.8681905445543254    0.8540125442925289

  0.00000000E+00  0.00000000E+00  0.00000000E+00
  0.00000000E+00  0.00000000E+00  0.00000000E+00
  0.00000000E+00  0.00000000E+00  0.00000000E+00
  0.00000000E+00  0.00000000E+00  0.00000000E+00
  0.00000000E+00  0.00000000E+00  0.00000000E+00
  0.00000000E+00  0.00000000E+00  0.00000000E+00
  0.00000000E+00  0.00000000E+00  0.00000000E+00
  0.00000000E+00  0.00000000E+00  0.00000000E+00
  0.00000000E+00  0.00000000E+00  0.00000000E+00
  0.00000000E+00  0.00000000E+00  0.00000000E+00
  0.00000000E+00  0.00000000E+00  0.00000000E+00
  0.00000000E+00  0.00000000E+00  0.00000000E+00
  0.00000000E+00  0.00000000E+00  0.00000000E+00
  0.00000000E+00  0.00000000E+00  0.00000000E+00
  0.00000000E+00  0.00000000E+00  0.00000000E+00
  0.00000000E+00  0.00000000E+00  0.00000000E+00
  0.00000000E+00  0.00000000E+00  0.00000000E+00
  0.00000000E+00  0.00000000E+00  0.00000000E+00
  0.00000000E+00  0.00000000E+00  0.00000000E+00
  0.00000000E+00  0.00000000E+00  0.00000000E+00
  0.00000000E+00  0.00000000E+00  0.00000000E+00
  0.00000000E+00  0.00000000E+00  0.00000000E+00
  0.00000000E+00  0.00000000E+00  0.00000000E+00
  0.00000000E+00  0.00000000E+00  0.00000000E+00
  0.00000000E+00  0.00000000E+00  0.00000000E+00
  0.00000000E+00  0.00000000E+00  0.00000000E+00
  0.00000000E+00  0.00000000E+00  0.00000000E+00
  0.00000000E+00  0.00000000E+00  0.00000000E+00
