System
1.0
5.597755858184376 0.0647305055984595 9.617687039269795
2.636938879245111 4.938319651421798 9.61761314334541
0.1407869282162781 0.0856966342358738 11.16438391772739
Na Co O 
4 8 16 
direct
0.2487093560680039 0.7518349853997462 0.2493935079534331 Na
0.2483907494099695 0.7519799689930674 0.7496158638786053 Na
0.7518251905196436 0.2487096702771348 0.2494033615185907 Na
0.7519716942358768 0.2483869988111597 0.7496287672412062 Na
0.000584346650939 0.0005879529755307 0.0004154182969858 Co
0.0004047319776608 0.0003968408513286 0.4999441584263093 Co
0.0005502055415288 0.4992804264247002 1.0001520618685542 Co
0.0004748741389463 0.499341078220232 0.5001087606241569 Co
0.4992838840392784 0.0005439999433044 1.0001551346569462 Co
0.4993399555919315 0.0004774904672902 0.5001071826967276 Co
0.4992123969613217 0.4992130965627185 0.0004223601176448 Co
0.4993879550517906 0.4993868909658553 0.499756121166074 Co
0.13309408101806 0.1330893780508262 0.1407252920219284 O
0.1335195655090008 0.1335205763704249 0.6417447727694738 O
0.137766945645013 0.6391780582106561 0.1342068955982733 O
0.1356822759431187 0.6369303167255678 0.6338809933158956 O
0.6391757889365817 0.1377685427780441 0.1342077937183258 O
0.6369355155289581 0.1356760568664526 0.6338820370546834 O
0.6334762218480917 0.6334702727106071 0.1370742406259715 O
0.6327147849110827 0.6327158615529452 0.6429454068466948 O
0.3676844701747463 0.3676890927860843 0.3576774428703018 O
0.3674321150672741 0.3674288913811098 0.8560267598854514 O
0.3640762141000808 0.8578878944362571 0.3665847340910057 O
0.3665201659253549 0.8609350304432299 0.8660478685867051 O
0.8578917158799503 0.3640717080928411 0.366586036713778 O
0.8609315073764402 0.3665221579170629 0.8660489421403218 O
0.8654892654443982 0.8654926876246859 0.3652849585152566 O
0.8662022506122755 0.8661981460955246 0.8589873758858111 O
