System                                  
   1.0000000000000000     
     4.7406589082259956   -0.0000001194354066   -0.0000000222048864
    -0.0000001165599645    4.7406593364630352    0.0000000716701985
    -0.0000000501376422    0.0000001465354525    9.4060347449924979
  Li              Zn              Rh              F             
     2     2     2    12
Direct
     0.4999999660722975    0.4999999796606574    0.4990184568170520
     0.0000000397300252   -0.0000000112485343    0.9990183604933027
     0.5000000006820638    0.5000000389132773    0.1691914394131959
    -0.0000000142474925   -0.0000000110944063    0.6691912857429360
     0.5000000159873265    0.5000000065570231    0.8326553361528196
     0.0000000078410611    0.0000000112559819    0.3326560757806274
     0.2005634827069097    0.7994367434321644    0.8345225134720040
     0.7994365851322162    0.2005631920913900    0.8345225380725593
     0.6928049854127609    0.6928048756135545    0.6694076483273590
     0.3071949615921643    0.3071951325359350    0.6694076771921139
     0.8071948310627260    0.1928049912677400    0.1694074989101919
     0.3073433805003853    0.3073434830847006    0.9956372637988135
     0.6926566224767567    0.6926564594599446    0.9956372487461581
     0.7005634700559443    0.7005631838090191    0.3345225030638317
     0.8073434901385892    0.1926563526779004    0.4956370913673289
     0.1926565102936753    0.8073436944147557    0.4956370924767872
     0.1928051198670083    0.8071950256241892    0.1694074991126684
     0.2994365446955822    0.2994368519447080    0.3345224710602717

  0.00000000E+00  0.00000000E+00  0.00000000E+00
  0.00000000E+00  0.00000000E+00  0.00000000E+00
  0.00000000E+00  0.00000000E+00  0.00000000E+00
  0.00000000E+00  0.00000000E+00  0.00000000E+00
  0.00000000E+00  0.00000000E+00  0.00000000E+00
  0.00000000E+00  0.00000000E+00  0.00000000E+00
  0.00000000E+00  0.00000000E+00  0.00000000E+00
  0.00000000E+00  0.00000000E+00  0.00000000E+00
  0.00000000E+00  0.00000000E+00  0.00000000E+00
  0.00000000E+00  0.00000000E+00  0.00000000E+00
  0.00000000E+00  0.00000000E+00  0.00000000E+00
  0.00000000E+00  0.00000000E+00  0.00000000E+00
  0.00000000E+00  0.00000000E+00  0.00000000E+00
  0.00000000E+00  0.00000000E+00  0.00000000E+00
  0.00000000E+00  0.00000000E+00  0.00000000E+00
  0.00000000E+00  0.00000000E+00  0.00000000E+00
  0.00000000E+00  0.00000000E+00  0.00000000E+00
  0.00000000E+00  0.00000000E+00  0.00000000E+00
