System                                  
   1.0000000000000000     
     5.4617374078420076    0.0700551742242439    8.4613809616796392
     2.5286982673064489    4.8778572471325274    8.4719147646668471
     0.0760581729688131    0.0686087390344842   10.1039753704789366
  Li              Co              O             
     5     8    16
Direct
     0.2463574399925902    0.2494539671711186    0.2549277688924128
     0.2491866233744544    0.2494981575642937    0.7522603499330307
     0.2457740296001044    0.7517855272421196    0.2521064287192127
     0.2412798052331170    0.7562195283811167    0.7522291032962626
     0.7523932722740747    0.2447050018368080    0.2525551432283363
     0.9979635297514947    0.9990397095801318    0.9980932064875428
     0.9984363299639405    0.9977656831765852    0.5001038805305319
     0.9988972966726312    0.4988537425437218   -0.0021116101497860
     0.9989455423457412    0.5004532573527198    0.5000372072157633
     0.5013665660731458    0.9992915859016975   -0.0005879581106794
     0.5020735557070435    1.0002303582454553    0.5013374300492469
     0.5022610682422610    0.5012633618765692   -0.0008091417601726
     0.5034697671633019    0.5007295390301247    0.5012080473085571
     0.1302081675815372    0.1271300743770472    0.1305570212002288
     0.1377508014304742    0.1296855758426855    0.6280758811693469
     0.1414599559956019    0.6262673018460759    0.1277932114175626
     0.1442884490800437    0.6257630456623886    0.6240465777888863
     0.6245475376199809    0.1418997824235514    0.1345957620023120
     0.6237815499671087    0.1430420824481115    0.6283257462745532
     0.6227550647388027    0.6279991624542245    0.1448345270433158
     0.6251345271092172    0.6351017876929619    0.6417546064495597
     0.3713450498371380    0.3731375415095745    0.3665155380073938
     0.3638018655668868    0.3706998160434736    0.8692169507308544
     0.3620831621369146    0.8707376480572657    0.3712234172757941
     0.3602143342027025    0.8698516137827380    0.8749873166388645
     0.8739633939690646    0.3605161658260394    0.3640882146167381
     0.8739424379189153    0.3594768877062152    0.8707763734754539
     0.8771762086243688    0.8706999423918389    0.3563277333774484
     0.8743898253288591    0.8630954144370306    0.8591295136081267

  0.00000000E+00  0.00000000E+00  0.00000000E+00
  0.00000000E+00  0.00000000E+00  0.00000000E+00
  0.00000000E+00  0.00000000E+00  0.00000000E+00
  0.00000000E+00  0.00000000E+00  0.00000000E+00
  0.00000000E+00  0.00000000E+00  0.00000000E+00
  0.00000000E+00  0.00000000E+00  0.00000000E+00
  0.00000000E+00  0.00000000E+00  0.00000000E+00
  0.00000000E+00  0.00000000E+00  0.00000000E+00
  0.00000000E+00  0.00000000E+00  0.00000000E+00
  0.00000000E+00  0.00000000E+00  0.00000000E+00
  0.00000000E+00  0.00000000E+00  0.00000000E+00
  0.00000000E+00  0.00000000E+00  0.00000000E+00
  0.00000000E+00  0.00000000E+00  0.00000000E+00
  0.00000000E+00  0.00000000E+00  0.00000000E+00
  0.00000000E+00  0.00000000E+00  0.00000000E+00
  0.00000000E+00  0.00000000E+00  0.00000000E+00
  0.00000000E+00  0.00000000E+00  0.00000000E+00
  0.00000000E+00  0.00000000E+00  0.00000000E+00
  0.00000000E+00  0.00000000E+00  0.00000000E+00
  0.00000000E+00  0.00000000E+00  0.00000000E+00
  0.00000000E+00  0.00000000E+00  0.00000000E+00
  0.00000000E+00  0.00000000E+00  0.00000000E+00
  0.00000000E+00  0.00000000E+00  0.00000000E+00
  0.00000000E+00  0.00000000E+00  0.00000000E+00
  0.00000000E+00  0.00000000E+00  0.00000000E+00
  0.00000000E+00  0.00000000E+00  0.00000000E+00
  0.00000000E+00  0.00000000E+00  0.00000000E+00
  0.00000000E+00  0.00000000E+00  0.00000000E+00
  0.00000000E+00  0.00000000E+00  0.00000000E+00
