System
1.0
5.458323682840835 0.0365344656617722 8.397287029615562
2.5143951781521974 4.843642888487565 8.396848905576416
0.0651415987829717 0.0389284804200273 10.034111590132602
Li Co O 
5 8 16 
direct
0.2473578713094922 0.2503958855708501 0.2508383759347882 Li
0.2496095776121358 0.2523237980336649 0.7491139185518098 Li
0.2486151768996775 0.7489987019635972 0.2528930064859143 Li
0.2503403418243583 0.7496321019117758 0.7494900056574736 Li
0.7496738738249424 0.2493306752163681 0.250854431616665 Li
0.9980664692928746 0.9980674682334529 0.9994511645935829 Co
0.9980336833500599 0.9981457117565913 0.4994072387817291 Co
0.9990404802736017 0.500973862520523 1.0000923189635917 Co
0.9988749794645604 0.5005864437390622 0.4999520910175898 Co
0.5012605428032443 0.9986746506121933 1.000177905989307 Co
0.5005681775304651 0.9988719557131708 0.5000283172075844 Co
0.5013862848957366 0.5014457536349571 1.0004330076689611 Co
0.5020639456313302 0.5016080446640804 0.5006846925600097 Co
0.1325586564425776 0.1303010467633058 0.1265225637973848 O
0.1299471700306633 0.1296804650153226 0.6295172705374884 O
0.1402621651596909 0.6266215492553152 0.1283369663035437 O
0.140247811371969 0.6242722035417366 0.6304056326446082 O
0.6266068149254646 0.1400852361152534 0.1285928867060341 O
0.624139403727441 0.1380738879028212 0.6334577041619981 O
0.628349332983383 0.6300163524722928 0.1381111936761961 O
0.6273827785917797 0.6275886917249757 0.6411586553128736 O
0.3698190777109185 0.3695087785492409 0.3704522258084942 O
0.3698568498282019 0.367514760728246 0.8734805580087459 O
0.3634990205108046 0.8742822859574662 0.3664440724269429 O
0.3590257962361688 0.8732008274828442 0.871427007229236 O
0.8742652719233579 0.3617047538661 0.3694311278766248 O
0.872936324926392 0.359004723454737 0.8716089432475976 O
0.8719325949358459 0.8720559092866792 0.3587149504509855 O
0.8695266834843945 0.8714267367170384 0.862520013498954 O
