NMC-811                                 
   1.00000000000000     
     5.7012773102641745    0.0053607285602103    0.0055156297267096
    -2.8497975260143336    4.8894919937705206   -0.0288293440567440
     0.0131188160519270   -0.0785285884223920   14.8164178150235344
   Li   Ni   O    Co   Mn
     4    10    24     1     1
Direct
  0.1586704005735255  0.8172070262394860  0.1636600097175243
  0.5093036965815763  0.5213125005776389  0.5041513702272243
  0.3379833754645358  0.1822294636008988  0.8294335341628548
  0.8255026086166738  0.1561611805147548  0.8333850319822349
  0.9983531070664795  0.9976337654295366  0.9985083624132181
 -0.0016053253763293  0.4980521607365990  0.9949487927288900
  0.4979336750649367  0.9978507433409565  0.9984876863220525
  0.4986873463992260  0.4987298453019396  0.0005587334001541
  0.3362565814683032  0.1656380481044844  0.3337725162313553
  0.3361745856307853  0.6656012836753228  0.3337580651760418
  0.8361704132532751  0.6655808263147103  0.3338154384792855
  0.1644272813748440  0.3372814002507232  0.6680264756132887
  0.1641007162344814  0.8360348553019833  0.6668362364428102
  0.6648841298990638  0.3372157645242361  0.6680846335869741
  0.3280765641355453  0.1586806867494831  0.0634174680219975
  0.3184828350344942  0.6719418214650983  0.0639128621718020
  0.8332983296130277  0.1689900502704560  0.0615037210698282
  0.8541969942210283  0.6731207072064673  0.0645179289690966
  0.0046880929926861  0.9948986157883648  0.2680294225106948
  0.0045989965861016  0.5013437602380729  0.2681284536363378
  0.4976861895489612  0.9945909311632916  0.2681449752826197
  0.5028533911358897  0.4975567254406588  0.2688650085091993
  0.1749405252171910  0.3365909827149330  0.3994594862377865
  0.1697464305691917  0.8337536921107803  0.3986127129639062
  0.6678210763471796  0.3363394810954153  0.3993590051039310
  0.6678987156298188  0.8298204561141032  0.3995948488271998
  0.3317686006670610  0.1702485518314738  0.6034754782390066
  0.3426518957834299  0.6663547379867787  0.6034633396633855
  0.8293888578424905  0.1657341462318898  0.6056696838760957
  0.8144782982285071  0.6650087593059884  0.6030446136947188
  0.9994105180031313  0.0146043055494954  0.7372332832897206
  0.9983438562997512  0.5058456107794520  0.7321287354902430
  0.5085113927418342  0.0157287883736415  0.7377737953349899
  0.4938637951732156  0.4970822966934116  0.7347903964397901
  0.1469928311716852  0.3144529062508406  0.9277830168662000
  0.1688247391940341  0.8380391893545897  0.9316301697157139
  0.6653223838263806  0.3164506399835107  0.9284539397815423
  0.6672035212461247  0.8348458064093123  0.9344536422590429
  0.6647282279966883  0.8375299092487796  0.6711006395704433
  0.8361618040251833  0.1656804042088959  0.3338982164858351
 
  0.00000000E+00  0.00000000E+00  0.00000000E+00
  0.00000000E+00  0.00000000E+00  0.00000000E+00
  0.00000000E+00  0.00000000E+00  0.00000000E+00
  0.00000000E+00  0.00000000E+00  0.00000000E+00
  0.00000000E+00  0.00000000E+00  0.00000000E+00
  0.00000000E+00  0.00000000E+00  0.00000000E+00
  0.00000000E+00  0.00000000E+00  0.00000000E+00
  0.00000000E+00  0.00000000E+00  0.00000000E+00
  0.00000000E+00  0.00000000E+00  0.00000000E+00
  0.00000000E+00  0.00000000E+00  0.00000000E+00
  0.00000000E+00  0.00000000E+00  0.00000000E+00
  0.00000000E+00  0.00000000E+00  0.00000000E+00
  0.00000000E+00  0.00000000E+00  0.00000000E+00
  0.00000000E+00  0.00000000E+00  0.00000000E+00
  0.00000000E+00  0.00000000E+00  0.00000000E+00
  0.00000000E+00  0.00000000E+00  0.00000000E+00
  0.00000000E+00  0.00000000E+00  0.00000000E+00
  0.00000000E+00  0.00000000E+00  0.00000000E+00
  0.00000000E+00  0.00000000E+00  0.00000000E+00
  0.00000000E+00  0.00000000E+00  0.00000000E+00
  0.00000000E+00  0.00000000E+00  0.00000000E+00
  0.00000000E+00  0.00000000E+00  0.00000000E+00
  0.00000000E+00  0.00000000E+00  0.00000000E+00
  0.00000000E+00  0.00000000E+00  0.00000000E+00
  0.00000000E+00  0.00000000E+00  0.00000000E+00
  0.00000000E+00  0.00000000E+00  0.00000000E+00
  0.00000000E+00  0.00000000E+00  0.00000000E+00
  0.00000000E+00  0.00000000E+00  0.00000000E+00
  0.00000000E+00  0.00000000E+00  0.00000000E+00
  0.00000000E+00  0.00000000E+00  0.00000000E+00
  0.00000000E+00  0.00000000E+00  0.00000000E+00
  0.00000000E+00  0.00000000E+00  0.00000000E+00
  0.00000000E+00  0.00000000E+00  0.00000000E+00
  0.00000000E+00  0.00000000E+00  0.00000000E+00
  0.00000000E+00  0.00000000E+00  0.00000000E+00
  0.00000000E+00  0.00000000E+00  0.00000000E+00
  0.00000000E+00  0.00000000E+00  0.00000000E+00
  0.00000000E+00  0.00000000E+00  0.00000000E+00
  0.00000000E+00  0.00000000E+00  0.00000000E+00
  0.00000000E+00  0.00000000E+00  0.00000000E+00
