NMC-811                                 
   1.00000000000000     
     5.7693080254719362    0.0022117239000073   -0.0024032629499104
    -2.8863204903797754    5.0305098012945635   -0.0225710183474424
    -0.0058735807614488   -0.0673453989204174   14.2126115763434129
   Li   Ni   O    Co   Mn
    11    10    24     1     1
Direct
  0.1742168884272350  0.3389271131744572  0.1665816946061646
  0.1703909553527062  0.8324971390697165  0.1683677928659852
  0.6705416550372101  0.3388080302716677  0.1669012558418194
  0.4962202961060942  0.5037423315547707  0.4988443940576074
  0.5006050258294885  0.9961718973200341  0.5016681446339976
  0.9984622853249573  0.5019596155117907  0.5017177191435930
  0.9975315683729428  0.9987372718718200  0.4997889112451045
  0.3298783673631949  0.1666899234193573  0.8314417399713531
  0.3333890000184864  0.6674892187569383  0.8326083777815299
  0.8321595408851948  0.1643162814028971  0.8320035926827158
  0.8268662346665439  0.6662364209067290  0.8317979204459376
  0.9991305164025630 -0.0000453258388318  0.0004780153409634
  0.9998896983289990  0.5008380028065598  0.9957842572002761
  0.5014564144510638  0.0018251817676754  0.0000685410417621
  0.4997983924726504  0.5020595044267259  0.0002487735598754
  0.3362414523711139  0.1672686854700229  0.3368689029539668
  0.3356973546910000  0.6670473279248047  0.3327975108091376
  0.8338186869392383  0.6670518482703136  0.3329202654864282
  0.1644863454006794  0.3313432784137068  0.6669711859158930
  0.1647342964785472  0.8315159147681527  0.6668206565464279
  0.6644485967888609  0.3313515856005527  0.6668900247832809
  0.3395487967555665  0.1721702118008138  0.0682815429434031
  0.3098309049500187  0.6345538776009461  0.0708215909039217
  0.8253868578926120  0.1914267591498426  0.0686389020983868
  0.8661225353973555  0.6758260938787518  0.0709833915650345
  0.0235569484855136  0.0321398167275962  0.2608709693562669
  0.9820045037586551  0.4904855025579236  0.2607328501181330
  0.5141041477510679  0.0071930528904706  0.2609145168763595
  0.5023437029895345  0.4854819169942419  0.2659989459288224
  0.1509475177507737  0.3335341043150455  0.4119920708046609
  0.1604602329684083  0.8365973255803749  0.4064100493575070
  0.6589143811288974  0.3068431694459102  0.4120352253100216
  0.6874735421242243  0.8420151586810539  0.4065903926562025
  0.3295104893710419  0.1630496688770782  0.5994761473540020
  0.3450662032299966  0.6922518908743687  0.5918247643006840
  0.8433006356552698  0.1472300509315466  0.5939147021303764
  0.8014569776939573  0.6479532193867839  0.5925037843174856
  0.9847331052125128  0.9697741074523786  0.7425098152794527
  0.9996661826547657  0.5002377395464379  0.7341849679523066
  0.5268590921270185  0.0144950917673768  0.7420915692862534
  0.4846075576874929  0.5138970373130157  0.7415447935477264
  0.1394085300211716  0.3177998873749966  0.9218453950285916
  0.1831675361064876  0.8239658093601810  0.9242079886922767
  0.6765443320130432  0.3631814370075292  0.9223752524524198
  0.6606543393334875  0.8300745564987747  0.9319120497443616
  0.6646823876235375  0.8312953414906818  0.6673094225866304
  0.8338525076088149  0.1648596046260161  0.3325634594949267
 
  0.00000000E+00  0.00000000E+00  0.00000000E+00
  0.00000000E+00  0.00000000E+00  0.00000000E+00
  0.00000000E+00  0.00000000E+00  0.00000000E+00
  0.00000000E+00  0.00000000E+00  0.00000000E+00
  0.00000000E+00  0.00000000E+00  0.00000000E+00
  0.00000000E+00  0.00000000E+00  0.00000000E+00
  0.00000000E+00  0.00000000E+00  0.00000000E+00
  0.00000000E+00  0.00000000E+00  0.00000000E+00
  0.00000000E+00  0.00000000E+00  0.00000000E+00
  0.00000000E+00  0.00000000E+00  0.00000000E+00
  0.00000000E+00  0.00000000E+00  0.00000000E+00
  0.00000000E+00  0.00000000E+00  0.00000000E+00
  0.00000000E+00  0.00000000E+00  0.00000000E+00
  0.00000000E+00  0.00000000E+00  0.00000000E+00
  0.00000000E+00  0.00000000E+00  0.00000000E+00
  0.00000000E+00  0.00000000E+00  0.00000000E+00
  0.00000000E+00  0.00000000E+00  0.00000000E+00
  0.00000000E+00  0.00000000E+00  0.00000000E+00
  0.00000000E+00  0.00000000E+00  0.00000000E+00
  0.00000000E+00  0.00000000E+00  0.00000000E+00
  0.00000000E+00  0.00000000E+00  0.00000000E+00
  0.00000000E+00  0.00000000E+00  0.00000000E+00
  0.00000000E+00  0.00000000E+00  0.00000000E+00
  0.00000000E+00  0.00000000E+00  0.00000000E+00
  0.00000000E+00  0.00000000E+00  0.00000000E+00
  0.00000000E+00  0.00000000E+00  0.00000000E+00
  0.00000000E+00  0.00000000E+00  0.00000000E+00
  0.00000000E+00  0.00000000E+00  0.00000000E+00
  0.00000000E+00  0.00000000E+00  0.00000000E+00
  0.00000000E+00  0.00000000E+00  0.00000000E+00
  0.00000000E+00  0.00000000E+00  0.00000000E+00
  0.00000000E+00  0.00000000E+00  0.00000000E+00
  0.00000000E+00  0.00000000E+00  0.00000000E+00
  0.00000000E+00  0.00000000E+00  0.00000000E+00
  0.00000000E+00  0.00000000E+00  0.00000000E+00
  0.00000000E+00  0.00000000E+00  0.00000000E+00
  0.00000000E+00  0.00000000E+00  0.00000000E+00
  0.00000000E+00  0.00000000E+00  0.00000000E+00
  0.00000000E+00  0.00000000E+00  0.00000000E+00
  0.00000000E+00  0.00000000E+00  0.00000000E+00
  0.00000000E+00  0.00000000E+00  0.00000000E+00
  0.00000000E+00  0.00000000E+00  0.00000000E+00
  0.00000000E+00  0.00000000E+00  0.00000000E+00
  0.00000000E+00  0.00000000E+00  0.00000000E+00
  0.00000000E+00  0.00000000E+00  0.00000000E+00
  0.00000000E+00  0.00000000E+00  0.00000000E+00
  0.00000000E+00  0.00000000E+00  0.00000000E+00
