NMC-811                                 
   1.00000000000000     
     5.6651904131721844    0.0023585010309677    0.0058977569714339
    -2.8343532788225452    4.8991210919895485   -0.0250460365146113
     0.0139443757541036   -0.0662111972910588   14.9140463231066835
   Li   Ni   O    Co   Mn
     3    10    24     1     1
Direct
  0.1597816675154655  0.8192595654265333  0.1659554233665476
  0.5035432174743925  0.5100165113037476  0.5021147230524577
  0.3327055839600385  0.1728052978918338  0.8308230483195672
  0.9983110212802917  0.9972497559861178  0.9992068872978651
  0.9982925813523464  0.4974040299305920  0.9953999201459632
  0.4981433022532173  0.9973335181171156  0.9991055682848197
  0.4982384171931105  0.4972999717720957  0.0031723229309283
  0.3360104456896233  0.1653826143134907  0.3336917941741324
  0.3359497084673251  0.6653639316539878  0.3337263499176675
  0.8359333692648955  0.6653409463169417  0.3337492442463278
  0.1649634144529801  0.3392237489952222  0.6674747732579664
  0.1656301634518563  0.8392691901127377  0.6635873949952542
  0.6659746461313327  0.3391996040824549  0.6674973768468982
  0.3283788004319396  0.1582650866880580  0.0650439006213697
  0.3211773639915693  0.6704673489411883  0.0642974725029568
  0.8314355128657598  0.1646480360775282  0.0620080716127537
  0.8483432094491983  0.6707053638112125  0.0644614673148074
  0.0044910369280705  0.9945884916309311  0.2681014009941188
  0.0045252410198119  0.5015171387809089  0.2681426354143356
  0.4974223974577906  0.9944674090380938  0.2681583999250599
  0.5021956237056999  0.4970613407690637  0.2689883723055487
  0.1742975234780461  0.3359920047549879  0.3992545762198419
  0.1696970531200453  0.8337750908492080  0.3983808380997922
  0.6678105151193339  0.3360962305375075  0.3992055811144787
  0.6675646216992581  0.8292392277592620  0.3993369873977099
  0.3361561067092573  0.1797130794559313  0.6006893700243846
  0.3391041877263445  0.6687039229807575  0.6031479123992796
  0.8299019882706180  0.1673114932948467  0.6054854949409773
  0.8221555429135928  0.6685514603187271  0.6032313467307296
  0.0084271504467085  0.0090352680233190  0.7315370261985086
  0.0012467076877864  0.5116771448350577  0.7300908685718343
  0.4919230546780159  0.0091029557194733  0.7315479846979277
  0.4951131667585607  0.4996666755452820  0.7333468286487095
  0.1654678139390981  0.3236375793169125  0.9340547990245923
  0.1707759597626774  0.8419327047976972  0.9319864636358435
  0.6580163181738009  0.3242311126446935  0.9342350984471706
  0.6625292976136442  0.8249631287041874  0.9377888386950570
  0.6657982901211091  0.8397662765917182  0.6707349001543652
  0.8358468243107179  0.1653373881942583  0.3337252359842568
 
  0.00000000E+00  0.00000000E+00  0.00000000E+00
  0.00000000E+00  0.00000000E+00  0.00000000E+00
  0.00000000E+00  0.00000000E+00  0.00000000E+00
  0.00000000E+00  0.00000000E+00  0.00000000E+00
  0.00000000E+00  0.00000000E+00  0.00000000E+00
  0.00000000E+00  0.00000000E+00  0.00000000E+00
  0.00000000E+00  0.00000000E+00  0.00000000E+00
  0.00000000E+00  0.00000000E+00  0.00000000E+00
  0.00000000E+00  0.00000000E+00  0.00000000E+00
  0.00000000E+00  0.00000000E+00  0.00000000E+00
  0.00000000E+00  0.00000000E+00  0.00000000E+00
  0.00000000E+00  0.00000000E+00  0.00000000E+00
  0.00000000E+00  0.00000000E+00  0.00000000E+00
  0.00000000E+00  0.00000000E+00  0.00000000E+00
  0.00000000E+00  0.00000000E+00  0.00000000E+00
  0.00000000E+00  0.00000000E+00  0.00000000E+00
  0.00000000E+00  0.00000000E+00  0.00000000E+00
  0.00000000E+00  0.00000000E+00  0.00000000E+00
  0.00000000E+00  0.00000000E+00  0.00000000E+00
  0.00000000E+00  0.00000000E+00  0.00000000E+00
  0.00000000E+00  0.00000000E+00  0.00000000E+00
  0.00000000E+00  0.00000000E+00  0.00000000E+00
  0.00000000E+00  0.00000000E+00  0.00000000E+00
  0.00000000E+00  0.00000000E+00  0.00000000E+00
  0.00000000E+00  0.00000000E+00  0.00000000E+00
  0.00000000E+00  0.00000000E+00  0.00000000E+00
  0.00000000E+00  0.00000000E+00  0.00000000E+00
  0.00000000E+00  0.00000000E+00  0.00000000E+00
  0.00000000E+00  0.00000000E+00  0.00000000E+00
  0.00000000E+00  0.00000000E+00  0.00000000E+00
  0.00000000E+00  0.00000000E+00  0.00000000E+00
  0.00000000E+00  0.00000000E+00  0.00000000E+00
  0.00000000E+00  0.00000000E+00  0.00000000E+00
  0.00000000E+00  0.00000000E+00  0.00000000E+00
  0.00000000E+00  0.00000000E+00  0.00000000E+00
  0.00000000E+00  0.00000000E+00  0.00000000E+00
  0.00000000E+00  0.00000000E+00  0.00000000E+00
  0.00000000E+00  0.00000000E+00  0.00000000E+00
  0.00000000E+00  0.00000000E+00  0.00000000E+00
