NMC-811                                 
   1.00000000000000     
     5.7290832532603222    0.0405396489423369    0.0102576452385686
    -2.8337704463151008    4.8924815930445105    0.0046814627418366
     0.0271338848629944    0.0311974334799895   14.5943390056787088
   Li   Ni   O    Co   Mn
     6    10    24     1     1
Direct
  0.1720324786458607  0.8199206451911679  0.1663277921017340
  0.6645057107330814  0.3441090082205615  0.1664456407999046
  0.4921705513669758  0.5227553300038756  0.5009852914278972
  0.0085207976191592  0.9790602045028712  0.4996267704333147
  0.3295673837328438  0.1584122464142328  0.8312861028834022
  0.8271690872394610  0.1570605051020058  0.8337354035621385
  0.9996185163351136  0.0012070340748681  0.0028095899540844
  0.0003176494666114  0.5020426726572198  0.9959179885206667
  0.5003665299849295  0.0035977630591792  0.9995302178049451
  0.4996757162291541  0.5033876591347590  0.9994211394151908
  0.3358261621142208  0.1654124558159407  0.3335791834785160
  0.3356257986373646  0.6653172695011829  0.3331699455907376
  0.8355573135182158  0.6651384412858369  0.3335616453863693
  0.1639325068206782  0.3341317923504902  0.6673289406271973
  0.1633928159928498  0.8318843012953524  0.6672509176859903
  0.6648688002811675  0.3349516416961936  0.6639968627708490
  0.3385573266986696  0.1674511821310237  0.0682649760819976
  0.3255299316466867  0.6682583023598800  0.0635929583925645
  0.8214221356421531  0.1777586783897528  0.0672214241372527
  0.8617679698080906  0.6730377131004889  0.0704810185059944
  0.0065988173230380  0.9982000459259012  0.2665560162821985
  0.9815706384103005  0.4930872225861920  0.2613539206744157
  0.5083696602347060  0.0167446932510887  0.2626086557658767
  0.5078036776076333  0.4973522036135989  0.2669296339273012
  0.1632514389141054  0.3145174186630937  0.4045786750637266
  0.1640175733837538  0.8329906893705105  0.3999385222446136
  0.6649080596345902  0.3320598171140386  0.4003788288896529
  0.6896393495000102  0.8379556514353332  0.4057291436731694
  0.3262089004606943  0.1654471533185196  0.5992508541223256
  0.3414864313945979  0.6698802352475678  0.6034132451886943
  0.8351086535706449  0.1628481354454994  0.6019755248946904
  0.8066588128753500  0.6650782538632228  0.5955618535423294
  0.9965855019465244  0.0041461769718341  0.7356587149598669
  0.9907669578060091  0.4971968300915385  0.7310284486657298
  0.5213511871049696  0.0229157457554436  0.7389255900373042
  0.4926426064894177  0.4902376253332383  0.7329278956134941
  0.1382917940665274  0.3116714676367996  0.9282228948833946
  0.1797866773326294  0.8452567243808896  0.9313048457605230
  0.6634445333558447  0.3306425533990522  0.9301751994106706
  0.6721407466904286  0.8423920944933589  0.9359599767326859
  0.6632058240022124  0.8345617031416012  0.6703030637661904
  0.8357831006691435  0.1656271833386241  0.3335936894434112
 
  0.00000000E+00  0.00000000E+00  0.00000000E+00
  0.00000000E+00  0.00000000E+00  0.00000000E+00
  0.00000000E+00  0.00000000E+00  0.00000000E+00
  0.00000000E+00  0.00000000E+00  0.00000000E+00
  0.00000000E+00  0.00000000E+00  0.00000000E+00
  0.00000000E+00  0.00000000E+00  0.00000000E+00
  0.00000000E+00  0.00000000E+00  0.00000000E+00
  0.00000000E+00  0.00000000E+00  0.00000000E+00
  0.00000000E+00  0.00000000E+00  0.00000000E+00
  0.00000000E+00  0.00000000E+00  0.00000000E+00
  0.00000000E+00  0.00000000E+00  0.00000000E+00
  0.00000000E+00  0.00000000E+00  0.00000000E+00
  0.00000000E+00  0.00000000E+00  0.00000000E+00
  0.00000000E+00  0.00000000E+00  0.00000000E+00
  0.00000000E+00  0.00000000E+00  0.00000000E+00
  0.00000000E+00  0.00000000E+00  0.00000000E+00
  0.00000000E+00  0.00000000E+00  0.00000000E+00
  0.00000000E+00  0.00000000E+00  0.00000000E+00
  0.00000000E+00  0.00000000E+00  0.00000000E+00
  0.00000000E+00  0.00000000E+00  0.00000000E+00
  0.00000000E+00  0.00000000E+00  0.00000000E+00
  0.00000000E+00  0.00000000E+00  0.00000000E+00
  0.00000000E+00  0.00000000E+00  0.00000000E+00
  0.00000000E+00  0.00000000E+00  0.00000000E+00
  0.00000000E+00  0.00000000E+00  0.00000000E+00
  0.00000000E+00  0.00000000E+00  0.00000000E+00
  0.00000000E+00  0.00000000E+00  0.00000000E+00
  0.00000000E+00  0.00000000E+00  0.00000000E+00
  0.00000000E+00  0.00000000E+00  0.00000000E+00
  0.00000000E+00  0.00000000E+00  0.00000000E+00
  0.00000000E+00  0.00000000E+00  0.00000000E+00
  0.00000000E+00  0.00000000E+00  0.00000000E+00
  0.00000000E+00  0.00000000E+00  0.00000000E+00
  0.00000000E+00  0.00000000E+00  0.00000000E+00
  0.00000000E+00  0.00000000E+00  0.00000000E+00
  0.00000000E+00  0.00000000E+00  0.00000000E+00
  0.00000000E+00  0.00000000E+00  0.00000000E+00
  0.00000000E+00  0.00000000E+00  0.00000000E+00
  0.00000000E+00  0.00000000E+00  0.00000000E+00
  0.00000000E+00  0.00000000E+00  0.00000000E+00
  0.00000000E+00  0.00000000E+00  0.00000000E+00
  0.00000000E+00  0.00000000E+00  0.00000000E+00
