NMC-811                                 
   1.00000000000000     
     5.7482532608157468   -0.0233850019206886   -0.0059639116663380
    -2.8981607808214398    4.9676659591627486   -0.0003417888728980
    -0.0142621037498477   -0.0070468569950616   14.4186122238385757
   Li   Ni   O    Co   Mn
     8    10    24     1     1
Direct
  0.1660560988610606  0.8328928744706467  0.1671466482723067
  0.6682520792083838  0.3401906436378219  0.1672545201187367
  0.5016924695311785  0.4978349033472843  0.5004941254910081
  0.4997202615992110  0.9875452113520508  0.5016205989537713
  0.9982622822788902  0.9970079059774348  0.5014540451388757
  0.3291955579268087  0.1651079747271608  0.8301580745270533
  0.3353095437935212  0.6660097699196162  0.8323326373249107
  0.8333029405529968  0.1659062069421834  0.8326321165157806
  0.9995013253351362  0.0053185989198334  0.0002540828478940
 -0.0000835094130438  0.5067718059018164  0.9955200535975821
  0.5002176632360434  0.0060910856767906  0.9986178220997122
  0.5004123373397598  0.5068432630016817  0.0007780586703123
  0.3352559021098329  0.1656688040531225  0.3342512164565870
  0.3347400792200799  0.6639055404895452  0.3327260815156217
  0.8343523724897287  0.6654386208898334  0.3373832815368167
  0.1637008015684263  0.3298483649440925  0.6643205212754789
  0.1633077220426525  0.8279892952410753  0.6669628058851426
  0.6664957310120619  0.3312252345717419  0.6668990744253042
  0.3321462274699853  0.1608795884531549  0.0660157220565145
  0.3209548038644119  0.6792034957104192  0.0659645890146981
  0.8198212938129337  0.1930262909974708  0.0687857413184159
  0.8569467030377311  0.6770079077354662  0.0666723122691458
  0.0132251160092988  0.0180793609059909  0.2636050716045678
  0.9781183157692847  0.4928891893963186  0.2635445810091798
  0.5048767114354220  0.0156074601323288  0.2624808107271128
  0.5125409752334890  0.4975288096106070  0.2697418493627224
  0.1660777971876065  0.3161025302823361  0.4054712227365926
  0.1680177459964657  0.8379297213309644  0.4027963711273251
  0.6514036973954188  0.3029574781660399  0.4088111905910413
  0.6850103600713727  0.8438182946566268  0.4096402816642364
  0.3345008721617889  0.1675354506101246  0.5964012820327892
  0.3487185557686478  0.6609590523400326  0.5961265746456503
  0.8347918405325969  0.1415984803891553  0.5954308433886412
  0.8181716287235633  0.6657644226258748  0.6010615575497043
  0.9992759439305121  0.0161057203384717  0.7383366896304792
  0.9995943227413051  0.4870562644483901  0.7330853367320616
  0.5066048667409025  0.9985450229740233  0.7380474467422430
  0.4755472444699516  0.4981321404636855  0.7398681587034246
  0.1490428183601004  0.3282729616657925  0.9269875879251439
  0.1880907809589134  0.8307918087360343  0.9231650814488356
  0.6666911105188372  0.3259823263922026  0.9270759010780507
  0.6686263702967189  0.8488979645318890  0.9329244791640291
  0.6653419079812740  0.8284741286682286  0.6702090052751366
  0.8369334853312689  0.1666252172960165  0.3329319965332699
 
  0.00000000E+00  0.00000000E+00  0.00000000E+00
  0.00000000E+00  0.00000000E+00  0.00000000E+00
  0.00000000E+00  0.00000000E+00  0.00000000E+00
  0.00000000E+00  0.00000000E+00  0.00000000E+00
  0.00000000E+00  0.00000000E+00  0.00000000E+00
  0.00000000E+00  0.00000000E+00  0.00000000E+00
  0.00000000E+00  0.00000000E+00  0.00000000E+00
  0.00000000E+00  0.00000000E+00  0.00000000E+00
  0.00000000E+00  0.00000000E+00  0.00000000E+00
  0.00000000E+00  0.00000000E+00  0.00000000E+00
  0.00000000E+00  0.00000000E+00  0.00000000E+00
  0.00000000E+00  0.00000000E+00  0.00000000E+00
  0.00000000E+00  0.00000000E+00  0.00000000E+00
  0.00000000E+00  0.00000000E+00  0.00000000E+00
  0.00000000E+00  0.00000000E+00  0.00000000E+00
  0.00000000E+00  0.00000000E+00  0.00000000E+00
  0.00000000E+00  0.00000000E+00  0.00000000E+00
  0.00000000E+00  0.00000000E+00  0.00000000E+00
  0.00000000E+00  0.00000000E+00  0.00000000E+00
  0.00000000E+00  0.00000000E+00  0.00000000E+00
  0.00000000E+00  0.00000000E+00  0.00000000E+00
  0.00000000E+00  0.00000000E+00  0.00000000E+00
  0.00000000E+00  0.00000000E+00  0.00000000E+00
  0.00000000E+00  0.00000000E+00  0.00000000E+00
  0.00000000E+00  0.00000000E+00  0.00000000E+00
  0.00000000E+00  0.00000000E+00  0.00000000E+00
  0.00000000E+00  0.00000000E+00  0.00000000E+00
  0.00000000E+00  0.00000000E+00  0.00000000E+00
  0.00000000E+00  0.00000000E+00  0.00000000E+00
  0.00000000E+00  0.00000000E+00  0.00000000E+00
  0.00000000E+00  0.00000000E+00  0.00000000E+00
  0.00000000E+00  0.00000000E+00  0.00000000E+00
  0.00000000E+00  0.00000000E+00  0.00000000E+00
  0.00000000E+00  0.00000000E+00  0.00000000E+00
  0.00000000E+00  0.00000000E+00  0.00000000E+00
  0.00000000E+00  0.00000000E+00  0.00000000E+00
  0.00000000E+00  0.00000000E+00  0.00000000E+00
  0.00000000E+00  0.00000000E+00  0.00000000E+00
  0.00000000E+00  0.00000000E+00  0.00000000E+00
  0.00000000E+00  0.00000000E+00  0.00000000E+00
  0.00000000E+00  0.00000000E+00  0.00000000E+00
  0.00000000E+00  0.00000000E+00  0.00000000E+00
  0.00000000E+00  0.00000000E+00  0.00000000E+00
  0.00000000E+00  0.00000000E+00  0.00000000E+00
