NMC-811                                 
   1.00000000000000     
     5.7488163090419855    0.0045996124553575    0.0046445228081459
    -2.8744446054195683    4.9230261858312696    0.0083899429223234
     0.0127487669938857    0.0341724962601912   14.5118841772340712
   Li   Ni   O    Co   Mn
     7    10    24     1     1
Direct
  0.1707626924951561  0.8249865720883790  0.1646565173644030
  0.6666883898151906  0.3418072754136355  0.1655703530976411
  0.4942022215362229  0.5188210652980907  0.5016927622659173
  0.9982473538840675  0.9923708365099388  0.5022833567496867
  0.3331641856882638  0.1643142135756759  0.8303825376492553
  0.3409967676069158  0.6681175109055332  0.8334578469270856
  0.8323666457044424  0.1651037043239287  0.8335960965640566
  0.9994589847162972  0.0049445933623794  0.0000028359327922
  0.0000667484462422  0.5065100927206293  0.9952214317390652
  0.5004828398978881  0.0061111506387088  0.9986420445266582
  0.5001760109101379  0.5059277762681792  0.0005355053747243
  0.3350919105388507  0.1658299376764168  0.3337183205627968
  0.3346799451877829  0.6658556704504733  0.3333204649071824
  0.8350028454309453  0.6658103995740274  0.3336782182953924
  0.1639936769651647  0.3281453144755908  0.6679983160725216
  0.1640807263791699  0.8275921014850188  0.6666642341995757
  0.6655191238569987  0.3293171000210415  0.6664579424719214
  0.3301089212425899  0.1589908745253473  0.0662344942451502
  0.3209996381657880  0.6743622272541429  0.0645126577423676
  0.8182120484712071  0.1911440467116556  0.0684254259657606
  0.8587165921581502  0.6771834201248987  0.0672175762798308
  0.0052340154095476  0.9987634554997243  0.2665479893097688
  0.9809019757631534  0.4945421876195424  0.2616071648746346
  0.5070188618018479  0.0180325625762383  0.2625988590784152
  0.5060158780899843  0.4979555165262344  0.2669922906846601
  0.1633592159393018  0.3140252117906132  0.4047612601231855
  0.1641214620258542  0.8332769620753685  0.4000480288979102
  0.6652176466552334  0.3326639377447483  0.4006393429297748
  0.6885749778236373  0.8373386783738511  0.4055049197471970
  0.3301044892873665  0.1645503875412406  0.6015586134207225
  0.3431109098221403  0.6622761185022618  0.6026327942536238
  0.8425473444038706  0.1479518523683024  0.5998048472632606
  0.8099675017272341  0.6622821351739281  0.5991287204147869
  0.9978544210366309  0.0004979778703691  0.7376581879848345
  0.9977072157474508  0.4928799576747019  0.7329769928952129
  0.5139695472828042  0.0032009679296055  0.7414283468870423
  0.4784048702259038  0.4958265049107704  0.7413937450242830
  0.1465162862047060  0.3266342521101065  0.9254880703891658
  0.1910799222120980  0.8331659182406297  0.9235846483988777
  0.6665800934534554  0.3300981328912012  0.9282967804044548
  0.6699869126393450  0.8499593150546724  0.9328067451204569
  0.6646749193600248  0.8284141150607863  0.6710464877141288
  0.8350761568843101  0.1662399506307665  0.3335930752799336
 
  0.00000000E+00  0.00000000E+00  0.00000000E+00
  0.00000000E+00  0.00000000E+00  0.00000000E+00
  0.00000000E+00  0.00000000E+00  0.00000000E+00
  0.00000000E+00  0.00000000E+00  0.00000000E+00
  0.00000000E+00  0.00000000E+00  0.00000000E+00
  0.00000000E+00  0.00000000E+00  0.00000000E+00
  0.00000000E+00  0.00000000E+00  0.00000000E+00
  0.00000000E+00  0.00000000E+00  0.00000000E+00
  0.00000000E+00  0.00000000E+00  0.00000000E+00
  0.00000000E+00  0.00000000E+00  0.00000000E+00
  0.00000000E+00  0.00000000E+00  0.00000000E+00
  0.00000000E+00  0.00000000E+00  0.00000000E+00
  0.00000000E+00  0.00000000E+00  0.00000000E+00
  0.00000000E+00  0.00000000E+00  0.00000000E+00
  0.00000000E+00  0.00000000E+00  0.00000000E+00
  0.00000000E+00  0.00000000E+00  0.00000000E+00
  0.00000000E+00  0.00000000E+00  0.00000000E+00
  0.00000000E+00  0.00000000E+00  0.00000000E+00
  0.00000000E+00  0.00000000E+00  0.00000000E+00
  0.00000000E+00  0.00000000E+00  0.00000000E+00
  0.00000000E+00  0.00000000E+00  0.00000000E+00
  0.00000000E+00  0.00000000E+00  0.00000000E+00
  0.00000000E+00  0.00000000E+00  0.00000000E+00
  0.00000000E+00  0.00000000E+00  0.00000000E+00
  0.00000000E+00  0.00000000E+00  0.00000000E+00
  0.00000000E+00  0.00000000E+00  0.00000000E+00
  0.00000000E+00  0.00000000E+00  0.00000000E+00
  0.00000000E+00  0.00000000E+00  0.00000000E+00
  0.00000000E+00  0.00000000E+00  0.00000000E+00
  0.00000000E+00  0.00000000E+00  0.00000000E+00
  0.00000000E+00  0.00000000E+00  0.00000000E+00
  0.00000000E+00  0.00000000E+00  0.00000000E+00
  0.00000000E+00  0.00000000E+00  0.00000000E+00
  0.00000000E+00  0.00000000E+00  0.00000000E+00
  0.00000000E+00  0.00000000E+00  0.00000000E+00
  0.00000000E+00  0.00000000E+00  0.00000000E+00
  0.00000000E+00  0.00000000E+00  0.00000000E+00
  0.00000000E+00  0.00000000E+00  0.00000000E+00
  0.00000000E+00  0.00000000E+00  0.00000000E+00
  0.00000000E+00  0.00000000E+00  0.00000000E+00
  0.00000000E+00  0.00000000E+00  0.00000000E+00
  0.00000000E+00  0.00000000E+00  0.00000000E+00
  0.00000000E+00  0.00000000E+00  0.00000000E+00
