NMC-811                                 
   1.00000000000000     
     5.7215412382033932    0.0467830556519713    0.0251443292664148
    -2.8245463997223457    4.8724452979944992    0.0014056490593295
     0.0645719729633248    0.0429580748232626   14.7224746509116144
   Li   Ni   O    Co   Mn
     5    10    24     1     1
Direct
  0.1666106447465270  0.8161550390383230  0.1657361812482451
  0.6627438721852381  0.3448814396824966  0.1654105021746831
  0.5258094496781645  0.5431513071392511  0.5018338814156986
  0.3235240562250987  0.1577527143973188  0.8308531015864340
  0.8271225279062179  0.1586816744338860  0.8336580911358042
  0.9978420011051212  0.9995981016702215  0.0032691326184905
  0.9985636294454887  0.4995606408862630  0.9966291885178337
  0.4983673420027533  0.0017313530772975  0.9999394242729649
  0.4979663923375517  0.5017129461838590  0.9995194177999808
  0.3355716599760903  0.1655890708318530  0.3323779067590175
  0.3364274844438129  0.6658408565467203  0.3289369786943967
  0.8366653769336178  0.6658661971345194  0.3317200584752903
  0.1638828187504215  0.3342930989677954  0.6680759647927356
  0.1635946845729193  0.8333899142755979  0.6672470864546003
  0.6638475774335646  0.3343682732956997  0.6684516384738267
  0.3377069108009816  0.1674799085905083  0.0687642083798879
  0.3253727396739983  0.6666122798169216  0.0635776081293889
  0.8185617755551768  0.1679639618255728  0.0670594381658657
  0.8600369369204796  0.6710788070100454  0.0707350303373829
  0.0099631182570532  0.9995747051336221  0.2655505383563150
  0.9749391486387380  0.4878531151690101  0.2586414287529645
  0.5016573687225148  0.0034568609613032  0.2631068028317435
  0.5094012820553581  0.5004248469103240  0.2651223256136322
  0.1723797525377284  0.3380519154657433  0.3964644972185790
  0.1667390975033931  0.8251044804575772  0.3945802866048537
  0.6632519567330833  0.3330980187208147  0.3983507345449931
  0.6859323727224493  0.8394637099498280  0.4003742159261957
  0.3354766833166446  0.1705937520981684  0.6035105607017457
  0.3435488731238602  0.6692344033350651  0.6041771312539712
  0.8316440057480883  0.1658097652543502  0.6057479793469251
  0.8142869149371881  0.6640102230839817  0.6027736461484344
  0.9968735415784211  0.0061148476679731  0.7368596196299727
  0.9932306197940605  0.4982746953079653  0.7328939843795724
  0.5074946525638926  0.0116412911964552  0.7391913350406569
  0.4888908154573895  0.4904916789169480  0.7353815596362833
  0.1359176223749304  0.3093747438493951  0.9291070625105312
  0.1778057957950225  0.8501716255436751  0.9329309015237093
  0.6609860557803768  0.3291577517747551  0.9312753749507392
  0.6703756140692295  0.8395009475837933  0.9364434065048121
  0.6635483091298882  0.8344268423326645  0.6715733948633331
  0.8369638461347227  0.1651064606433960  0.3334306068972046
 
  0.00000000E+00  0.00000000E+00  0.00000000E+00
  0.00000000E+00  0.00000000E+00  0.00000000E+00
  0.00000000E+00  0.00000000E+00  0.00000000E+00
  0.00000000E+00  0.00000000E+00  0.00000000E+00
  0.00000000E+00  0.00000000E+00  0.00000000E+00
  0.00000000E+00  0.00000000E+00  0.00000000E+00
  0.00000000E+00  0.00000000E+00  0.00000000E+00
  0.00000000E+00  0.00000000E+00  0.00000000E+00
  0.00000000E+00  0.00000000E+00  0.00000000E+00
  0.00000000E+00  0.00000000E+00  0.00000000E+00
  0.00000000E+00  0.00000000E+00  0.00000000E+00
  0.00000000E+00  0.00000000E+00  0.00000000E+00
  0.00000000E+00  0.00000000E+00  0.00000000E+00
  0.00000000E+00  0.00000000E+00  0.00000000E+00
  0.00000000E+00  0.00000000E+00  0.00000000E+00
  0.00000000E+00  0.00000000E+00  0.00000000E+00
  0.00000000E+00  0.00000000E+00  0.00000000E+00
  0.00000000E+00  0.00000000E+00  0.00000000E+00
  0.00000000E+00  0.00000000E+00  0.00000000E+00
  0.00000000E+00  0.00000000E+00  0.00000000E+00
  0.00000000E+00  0.00000000E+00  0.00000000E+00
  0.00000000E+00  0.00000000E+00  0.00000000E+00
  0.00000000E+00  0.00000000E+00  0.00000000E+00
  0.00000000E+00  0.00000000E+00  0.00000000E+00
  0.00000000E+00  0.00000000E+00  0.00000000E+00
  0.00000000E+00  0.00000000E+00  0.00000000E+00
  0.00000000E+00  0.00000000E+00  0.00000000E+00
  0.00000000E+00  0.00000000E+00  0.00000000E+00
  0.00000000E+00  0.00000000E+00  0.00000000E+00
  0.00000000E+00  0.00000000E+00  0.00000000E+00
  0.00000000E+00  0.00000000E+00  0.00000000E+00
  0.00000000E+00  0.00000000E+00  0.00000000E+00
  0.00000000E+00  0.00000000E+00  0.00000000E+00
  0.00000000E+00  0.00000000E+00  0.00000000E+00
  0.00000000E+00  0.00000000E+00  0.00000000E+00
  0.00000000E+00  0.00000000E+00  0.00000000E+00
  0.00000000E+00  0.00000000E+00  0.00000000E+00
  0.00000000E+00  0.00000000E+00  0.00000000E+00
  0.00000000E+00  0.00000000E+00  0.00000000E+00
  0.00000000E+00  0.00000000E+00  0.00000000E+00
  0.00000000E+00  0.00000000E+00  0.00000000E+00
