System                                  
   1.0000000000000000     
    11.3414376695480694   -0.0647836135991604   -0.2488026780888000
    -5.6337010728795018    9.9288513910399363    0.0710431474792025
     0.0222419509143507    0.0786910209071783    9.2036924770866690
  Li              Mn              Co              Ni              O             
    12    12     8    12    64
Direct
     0.1722244389234248    0.3386327337082524    0.8956782429912223
     0.1697545785326488    0.8367287222221221    0.8967454128061905
     0.6690200056630221    0.3379358527224458    0.8918954670675550
     0.6708243504949537    0.8379304456712146    0.8954679380693181
     0.4923365200180083    0.4905917835091014    0.4927244005917324
     0.4963930319846414    0.9987473877877188    0.4943015321326660
     0.9949664486446037    0.4956143023745825    0.4935727811036038
     0.9952272529431908    0.9962944320459909    0.4944864232822154
     0.3325555531954915    0.1626612296789949    0.4030080602501032
     0.3315923974709345    0.6653245671915514    0.4029017477401533
     0.8307011634358084    0.1603442256614902    0.4024349410619700
     0.8316744750830611    0.6649492962810721    0.3983662917835577
     0.0851042520168334    0.4178093450223119    0.2062625437157231
     0.0869800646331338    0.9181543953372244    0.2065382626500172
     0.5856819761068245    0.4167823702987887    0.2018893038175547
     0.5852557409393980    0.9151708839630509    0.2067804708235380
     0.0875568697116288    0.1703181954218490    0.2059189655210679
     0.0856990451759592    0.6703570724474449    0.2066646389652316
     0.5849815824026346    0.1679927422721383    0.2051207299801591
     0.5863369584276190    0.6702838280897668    0.2052038082642807
     0.1646378100276812    0.0815706064225326    0.7246025222299279
     0.1679729377047195    0.5828399752770471    0.7189561746528498
     0.6666032864417110    0.0833740837836590    0.7200224510095451
     0.6693346387148650    0.5812311483701080    0.7133224165784422
     0.1679349748957477    0.3294499267243011    0.4832618908248642
     0.1644039691028241    0.8291181412664815    0.4821000197505966
     0.6714931042964519    0.3301816964534224    0.4820145094147738
     0.6616793909009350    0.8262103594072981    0.4822100548145615
     0.3379072809522563    0.1687600768490267    0.9845938273493259
     0.3404263866620396    0.6730437916468833    0.9865502608211296
     0.8405317160493867    0.1728174190386097    0.9862628610170385
     0.8437942311462832    0.6751508574733407    0.9843867034810191
     0.4125576915147730    0.0808393814601790    0.7188047326800052
     0.4194401302896960    0.5867267533779384    0.7183853709369363
     0.9143532952838725    0.0821618925957223    0.7176582152273474
     0.9197374742058790    0.5868083457694224    0.7180482532379591
     0.3333672354645729    0.4184981269906930    0.2024523774873010
     0.3314972089452625    0.9147937890486819    0.2053373522201723
     0.8328464471491281    0.4155583326361770    0.2021175273069387
     0.8314925371978470    0.9163232539330463    0.2060917568917436
     0.4135872492286983    0.3285719820410509    0.7145545691755143
     0.4147172249216752    0.8326887033232814    0.7202369654384230
     0.9153575693393352    0.3297318123001211    0.7185341091839931
     0.9139076192206909    0.8314780273179111    0.7175355899424116
     0.1725218224479108    0.0881026709732649    0.1038642771132438
     0.1723328123031229    0.5873449841632580    0.1033036085858181
     0.6713138996936208    0.0869099818773254    0.1020701814312936
     0.6731433929099668    0.5876834575717435    0.1007351649957831
     0.4222778458594176    0.3340640909177005    0.0904088327977725
     0.4169798462886394    0.8320178922637966    0.0928519716677798
     0.9219372584131943    0.3387221092403698    0.0905941451965819
     0.9205210064575180    0.8307586401579743    0.0938999108459539
     0.3297054113166899    0.1629930770966299    0.6152736819577426
     0.3350381365561237    0.6715642610648266    0.6146886311636868
     0.8340832743105178    0.1668024733631456    0.6149776920376783
     0.8373442552569770    0.6713933746014082    0.6113361923443992
     0.2520190977681809    0.0190368853054650    0.8545543098727600
     0.2653107304067885    0.5247751568753457    0.8461238409628563
     0.7575878308060930    0.0237760887097287    0.8521878584766391
     0.7661637636174636    0.5243327640911588    0.8430831214731478
     0.2516324441767143    0.2326725692332647    0.8516089085658456
     0.2605158292538920    0.7411589606984381    0.8422474083864729
     0.7627489151894090    0.2431192358843270    0.8415379945461954
     0.7605794878833914    0.7404451601461097    0.8392320863754485
     0.3248621623108707    0.4092033298677323    0.5945279897560174
     0.3351931143383197    0.9147492118549407    0.5993572613173906
     0.8323855658751654    0.4089127296575150    0.5967746671823776
     0.8325423599337831    0.9113475827572235    0.5968432488971490
     0.2383555193270715    0.2576156584422246    0.3431609309484350
     0.2316939038034843    0.7516605674995662    0.3466041234640188
     0.7335698889556111    0.2497470008967608    0.3435645422715894
     0.7293958739174274    0.7498284453681930    0.3462390672678223
     0.0191004804883648    0.2591253173663305    0.3355904512727808
     0.0183974589757811    0.7595245829523486    0.3349772060576851
     0.5201536455196710    0.2600426533138495    0.3342926951582186
     0.5154625022331901    0.7568217167506182    0.3338530229831229
     0.0847895520298119    0.1640306979486880    0.5974701199862305
     0.0802659342366954    0.6593759581385957    0.6009603276719551
     0.5877978919604616    0.1667373058667245    0.5966513568796153
     0.5779278589804429    0.6564755514068681    0.5981915953648832
     0.9926043622783262    0.9951763917463058    0.8186291000899728
     0.9988816114713059    0.4949690307192107    0.8169411538762626
     0.4970902446535006    0.9983910296973736    0.8186187548574990
     0.5004629825818016    0.4949517680594383    0.8120984292990878
     0.0090267279643377    0.0052336562113422    0.3045053017907298
     0.9975531420573136    0.4990446002281791    0.3020413450986517
     0.4976266459032550    0.9983416719964929    0.3024115648367144
     0.4999686080785949    0.4984474855656044    0.3007760570897655
     0.1680681123761994    0.3372744039821595    0.1018310937773770
     0.1692473718141572    0.8345937504653111    0.1025780240587821
     0.6689774907269935    0.3337208655824584    0.0997304322192100
     0.6587249948546052    0.8301065623542871    0.0984169174288870
     0.4791542615425570    0.2385826053724700    0.8479557390329795
     0.4829546103236280    0.7510454873923326    0.8493074070753744
     0.9823724453104258    0.2478522818415207    0.8486914088817876
     0.9841628778248853    0.7513927412225160    0.8471241533674994
     0.0800066244214078    0.4155848640540647    0.6052887590636632
     0.0791297132965747    0.9167719731104405    0.6073200842710242
     0.5926871092560726    0.4195507572621298    0.5946158399867085
     0.5785038830174164    0.9169212600972114    0.6088087185238724
     0.2329343153667691    0.4782521372036360    0.3476082983874163
     0.2377284329144197    0.9772018905991440    0.3447554785436890
     0.7414279386064337    0.4771533179155878    0.3385284340763985
     0.7301823782192242    0.9761304377749819    0.3477642940900059
     0.4190924155991494    0.0928647530270122    0.0947221576831077
     0.4190924852374224    0.5917016020944420    0.0918883144368917
     0.9194169949396286    0.0975787803157752    0.0954806701713059
     0.9232459640796463    0.5956934553553980    0.0905594738704547

  0.00000000E+00  0.00000000E+00  0.00000000E+00
  0.00000000E+00  0.00000000E+00  0.00000000E+00
  0.00000000E+00  0.00000000E+00  0.00000000E+00
  0.00000000E+00  0.00000000E+00  0.00000000E+00
  0.00000000E+00  0.00000000E+00  0.00000000E+00
  0.00000000E+00  0.00000000E+00  0.00000000E+00
  0.00000000E+00  0.00000000E+00  0.00000000E+00
  0.00000000E+00  0.00000000E+00  0.00000000E+00
  0.00000000E+00  0.00000000E+00  0.00000000E+00
  0.00000000E+00  0.00000000E+00  0.00000000E+00
  0.00000000E+00  0.00000000E+00  0.00000000E+00
  0.00000000E+00  0.00000000E+00  0.00000000E+00
  0.00000000E+00  0.00000000E+00  0.00000000E+00
  0.00000000E+00  0.00000000E+00  0.00000000E+00
  0.00000000E+00  0.00000000E+00  0.00000000E+00
  0.00000000E+00  0.00000000E+00  0.00000000E+00
  0.00000000E+00  0.00000000E+00  0.00000000E+00
  0.00000000E+00  0.00000000E+00  0.00000000E+00
  0.00000000E+00  0.00000000E+00  0.00000000E+00
  0.00000000E+00  0.00000000E+00  0.00000000E+00
  0.00000000E+00  0.00000000E+00  0.00000000E+00
  0.00000000E+00  0.00000000E+00  0.00000000E+00
  0.00000000E+00  0.00000000E+00  0.00000000E+00
  0.00000000E+00  0.00000000E+00  0.00000000E+00
  0.00000000E+00  0.00000000E+00  0.00000000E+00
  0.00000000E+00  0.00000000E+00  0.00000000E+00
  0.00000000E+00  0.00000000E+00  0.00000000E+00
  0.00000000E+00  0.00000000E+00  0.00000000E+00
  0.00000000E+00  0.00000000E+00  0.00000000E+00
  0.00000000E+00  0.00000000E+00  0.00000000E+00
  0.00000000E+00  0.00000000E+00  0.00000000E+00
  0.00000000E+00  0.00000000E+00  0.00000000E+00
  0.00000000E+00  0.00000000E+00  0.00000000E+00
  0.00000000E+00  0.00000000E+00  0.00000000E+00
  0.00000000E+00  0.00000000E+00  0.00000000E+00
  0.00000000E+00  0.00000000E+00  0.00000000E+00
  0.00000000E+00  0.00000000E+00  0.00000000E+00
  0.00000000E+00  0.00000000E+00  0.00000000E+00
  0.00000000E+00  0.00000000E+00  0.00000000E+00
  0.00000000E+00  0.00000000E+00  0.00000000E+00
  0.00000000E+00  0.00000000E+00  0.00000000E+00
  0.00000000E+00  0.00000000E+00  0.00000000E+00
  0.00000000E+00  0.00000000E+00  0.00000000E+00
  0.00000000E+00  0.00000000E+00  0.00000000E+00
  0.00000000E+00  0.00000000E+00  0.00000000E+00
  0.00000000E+00  0.00000000E+00  0.00000000E+00
  0.00000000E+00  0.00000000E+00  0.00000000E+00
  0.00000000E+00  0.00000000E+00  0.00000000E+00
  0.00000000E+00  0.00000000E+00  0.00000000E+00
  0.00000000E+00  0.00000000E+00  0.00000000E+00
  0.00000000E+00  0.00000000E+00  0.00000000E+00
  0.00000000E+00  0.00000000E+00  0.00000000E+00
  0.00000000E+00  0.00000000E+00  0.00000000E+00
  0.00000000E+00  0.00000000E+00  0.00000000E+00
  0.00000000E+00  0.00000000E+00  0.00000000E+00
  0.00000000E+00  0.00000000E+00  0.00000000E+00
  0.00000000E+00  0.00000000E+00  0.00000000E+00
  0.00000000E+00  0.00000000E+00  0.00000000E+00
  0.00000000E+00  0.00000000E+00  0.00000000E+00
  0.00000000E+00  0.00000000E+00  0.00000000E+00
  0.00000000E+00  0.00000000E+00  0.00000000E+00
  0.00000000E+00  0.00000000E+00  0.00000000E+00
  0.00000000E+00  0.00000000E+00  0.00000000E+00
  0.00000000E+00  0.00000000E+00  0.00000000E+00
  0.00000000E+00  0.00000000E+00  0.00000000E+00
  0.00000000E+00  0.00000000E+00  0.00000000E+00
  0.00000000E+00  0.00000000E+00  0.00000000E+00
  0.00000000E+00  0.00000000E+00  0.00000000E+00
  0.00000000E+00  0.00000000E+00  0.00000000E+00
  0.00000000E+00  0.00000000E+00  0.00000000E+00
  0.00000000E+00  0.00000000E+00  0.00000000E+00
  0.00000000E+00  0.00000000E+00  0.00000000E+00
  0.00000000E+00  0.00000000E+00  0.00000000E+00
  0.00000000E+00  0.00000000E+00  0.00000000E+00
  0.00000000E+00  0.00000000E+00  0.00000000E+00
  0.00000000E+00  0.00000000E+00  0.00000000E+00
  0.00000000E+00  0.00000000E+00  0.00000000E+00
  0.00000000E+00  0.00000000E+00  0.00000000E+00
  0.00000000E+00  0.00000000E+00  0.00000000E+00
  0.00000000E+00  0.00000000E+00  0.00000000E+00
  0.00000000E+00  0.00000000E+00  0.00000000E+00
  0.00000000E+00  0.00000000E+00  0.00000000E+00
  0.00000000E+00  0.00000000E+00  0.00000000E+00
  0.00000000E+00  0.00000000E+00  0.00000000E+00
  0.00000000E+00  0.00000000E+00  0.00000000E+00
  0.00000000E+00  0.00000000E+00  0.00000000E+00
  0.00000000E+00  0.00000000E+00  0.00000000E+00
  0.00000000E+00  0.00000000E+00  0.00000000E+00
  0.00000000E+00  0.00000000E+00  0.00000000E+00
  0.00000000E+00  0.00000000E+00  0.00000000E+00
  0.00000000E+00  0.00000000E+00  0.00000000E+00
  0.00000000E+00  0.00000000E+00  0.00000000E+00
  0.00000000E+00  0.00000000E+00  0.00000000E+00
  0.00000000E+00  0.00000000E+00  0.00000000E+00
  0.00000000E+00  0.00000000E+00  0.00000000E+00
  0.00000000E+00  0.00000000E+00  0.00000000E+00
  0.00000000E+00  0.00000000E+00  0.00000000E+00
  0.00000000E+00  0.00000000E+00  0.00000000E+00
  0.00000000E+00  0.00000000E+00  0.00000000E+00
  0.00000000E+00  0.00000000E+00  0.00000000E+00
  0.00000000E+00  0.00000000E+00  0.00000000E+00
  0.00000000E+00  0.00000000E+00  0.00000000E+00
  0.00000000E+00  0.00000000E+00  0.00000000E+00
  0.00000000E+00  0.00000000E+00  0.00000000E+00
  0.00000000E+00  0.00000000E+00  0.00000000E+00
  0.00000000E+00  0.00000000E+00  0.00000000E+00
  0.00000000E+00  0.00000000E+00  0.00000000E+00
  0.00000000E+00  0.00000000E+00  0.00000000E+00
