System
1.0
11.34143766954807 -0.0647836135991604 -0.2488026780888
-5.633701072879502 9.928851391039936 0.0710431474792025
0.0222419509143507 0.0786910209071783 9.203692477086669
Li Mn Co Ni O 
12 12 8 12 64 
direct
0.1698098451694932 0.3376628751096447 0.8967757169310584 Li
0.1702222912070977 0.8383312111843976 0.8960611790367414 Li
0.6702432332383128 0.3384795033521151 0.8919566119497166 Li
0.6727805844814533 0.8397735866242936 0.8963105009345648 Li
0.4922044724748434 0.4898758214749176 0.496502096200813 Li
0.4949951889217828 0.9966624731086828 0.4937968410044454 Li
0.9954506569011056 0.4944879362666612 0.4930707300362466 Li
0.9941009679249271 0.9950540942183245 0.4943492236338108 Li
0.3323504339508225 0.1616148338809905 0.4017300959948621 Li
0.3311501482117547 0.6655347888722329 0.4029819487699249 Li
0.8303353482357708 0.1621632715520325 0.401768346039321 Li
0.8326583465384205 0.6643551819352801 0.3979578011418541 Li
0.084092701858862 0.4172249887226372 0.2064247143222673 Mn
0.086804939494877 0.9176729972181832 0.2064095990970205 Mn
0.5865596795868709 0.415113637800993 0.2114580057212914 Mn
0.5870162916370995 0.9167619333919326 0.2076561542714882 Mn
0.0872469088410159 0.1697596068867286 0.205932067384837 Mn
0.0849116624619765 0.6696653307717144 0.2050921113435432 Mn
0.5860669593397613 0.1687021916038981 0.2061411279846805 Mn
0.5864351063314746 0.6719072376040993 0.2132739959936517 Mn
0.1655025633691104 0.0816837498811766 0.7231768071293386 Mn
0.1670339999611651 0.5827007289008675 0.7187893666660301 Mn
0.6656306324885681 0.0830576259900748 0.7202965423907778 Mn
0.6715620468521137 0.5817031069414449 0.7083304084771006 Mn
0.1656931856389277 0.3286911872968837 0.4843268019099218 Co
0.1653722105933906 0.8272368271364159 0.4808742715356926 Co
0.670568994797198 0.3290754166159496 0.480791915140872 Co
0.6626813345759694 0.8278340521090429 0.4838294127944404 Co
0.3390441690283307 0.170231251278714 0.9836963974656687 Co
0.3403685013536422 0.6748065110418373 0.9846822086022258 Co
0.8413878636209658 0.1726898656796915 0.985527629249501 Co
0.8436170790321343 0.675395976982566 0.9830308420441893 Co
0.4154639980598281 0.0829506773276182 0.7178754193358338 Ni
0.4184882641149972 0.5883952578615513 0.7130485586490494 Ni
0.914960003233458 0.0831802308830778 0.7178104788713388 Ni
0.9194916275139163 0.5854067471195464 0.7168918848648403 Ni
0.3314754468052952 0.418234808466159 0.211289105698525 Ni
0.331454260999881 0.9151703256377189 0.20355541802651 Ni
0.8320370705376696 0.4151924676106287 0.202945149138812 Ni
0.832107307265668 0.9165284665048393 0.2061907631311267 Ni
0.4127998261634493 0.3278837304773808 0.7109256244961036 Ni
0.4138094982929323 0.8324588084371063 0.7189949455338626 Ni
0.9145310767717632 0.3302558563543862 0.7185958060006952 Ni
0.9146384696595391 0.8319730947889631 0.7174831510701598 Ni
0.1730621675824597 0.0879474317255044 0.1043564286690546 O
0.17244237948454 0.5868994452455958 0.1022541534222886 O
0.6697577531881004 0.085183746104209 0.1000570266308827 O
0.6667973694460544 0.5848638197311667 0.099920684089715 O
0.4229020304526227 0.3367609913856324 0.0929145877166457 O
0.4146797328244428 0.8271491262521242 0.0954002426920296 O
0.9218412851052797 0.3372851949800337 0.0909620321309363 O
0.9199664860509725 0.8301324592600867 0.0941697790816379 O
0.3309390378774469 0.1629342187516351 0.6138575888379267 O
0.333894239794464 0.6720641646697453 0.6132736527377463 O
0.8337723194256901 0.1673118168446414 0.6153924710876677 O
0.8394125307411269 0.6717334780313308 0.6104807148070763 O
0.2578661184150446 0.0213861475948163 0.8510384744626237 O
0.2666469023363133 0.525604317367416 0.8456649187826754 O
0.7595856082598682 0.0241095105168828 0.8514490595968329 O
0.7645990166178085 0.5247391902744345 0.842779078078839 O
0.2510386789942861 0.2327665807536989 0.8513828997618484 O
0.2598589729789697 0.7417006688701961 0.8417535070441288 O
0.7623457053341037 0.2428860837270407 0.8418556761847003 O
0.7607845211010602 0.7408207014382859 0.8384123722754302 O
0.3231267762828702 0.4079136653571763 0.5931573096599898 O
0.3331728085630122 0.9107698865917037 0.5970793837764866 O
0.8357204405860755 0.4093216395551337 0.5958308537159878 O
0.832548977922121 0.9114875175186005 0.5971760935228437 O
0.2374010176318523 0.2573353353599581 0.3453708295785507 O
0.2315610254901017 0.7507360597720789 0.3442221425941281 O
0.733477186775552 0.2492913620663594 0.3415345028029933 O
0.7316860813307333 0.751827855836939 0.3484988024149643 O
0.0185879552891539 0.2588006537152038 0.3360379360248077 O
0.0183345257092632 0.7588815316905142 0.3338506136552614 O
0.5189924492408721 0.2584112267909722 0.3356265762130921 O
0.515757994486766 0.758430560833441 0.3365952479830731 O
0.0836407625540282 0.1629127234901748 0.5975058986414266 O
0.081274254672839 0.6588589567799804 0.6000297264703477 O
0.5839792235115239 0.1615424485638542 0.5989351707045728 O
0.5786404787478139 0.6587308502846719 0.5946100144789102 O
0.9939205830548509 0.9958185738555715 0.8180626584643008 O
0.9988928268994499 0.4956009341258755 0.817586061227036 O
0.4960881556137946 0.9974337766557994 0.8190656155203137 O
0.4999456150349544 0.4966720322338529 0.8011764636197131 O
0.0092850410876831 0.0048996540162438 0.3047397603042039 O
0.9970501930131829 0.499045775996426 0.3013800861744604 O
0.4976348052892914 0.9984290761913901 0.3015836040154555 O
0.5004074406083502 0.498909275241312 0.3069182009856701 O
0.1690210938825849 0.3377545368940622 0.1040968048042785 O
0.1685676247951255 0.834390622468592 0.1013547349223586 O
0.6684153021243324 0.334847088101442 0.1015521170737504 O
0.658265869544979 0.8288751748836537 0.1004651213652757 O
0.4809383294964217 0.247020783384613 0.8495785801936017 O
0.4828348230335063 0.7505879601571529 0.8495232203014553 O
0.9827619273925122 0.2482907371377117 0.8491127900087376 O
0.9845745173439995 0.7520395994559235 0.8474127541960657 O
0.0800777744740133 0.4150147907417732 0.6063147163992324 O
0.0797013302015099 0.9166553995442352 0.6072177294783396 O
0.5939217127473556 0.4220080683440237 0.5944238546516047 O
0.5784013066875237 0.916415604505566 0.6088438437746768 O
0.2308187971528026 0.4784392504368596 0.3504541277056145 O
0.2379366404194357 0.9762370434952253 0.3442298687665465 O
0.7411859598771307 0.4772530450646018 0.340945371478483 O
0.7313410384168746 0.9775786744903859 0.3476394998097377 O
0.4197212490349409 0.0945044549196187 0.0928105542892802 O
0.4218962531102549 0.587996919504837 0.092226562980814 O
0.9202234947160465 0.0972035519255676 0.0955312274336021 O
0.9213439165821996 0.5949599563773961 0.0903481491646749 O
