System
1.0
9.84825 -0.00286 -0.00063
0.00402 12.17812 -8e-05
0.00074 0.00018 9.39175
Li Fe P O 
16 16 16 64 
direct
0.23871631218715597 0.12499091172034243 0.16750794308307074 Li
0.23871631218715592 0.6249909117203425 0.16750794308307074 Li
0.7387163121871558 0.12499091172034245 0.16750794308307074 Li
0.7387163121871559 0.6249909117203425 0.16750794308307074 Li
0.488716267087617 0.37498330593185164 0.33249186970306266 Li
0.488716267087617 0.8749833059318517 0.33249186970306266 Li
0.9887162670876171 0.37498330593185164 0.33249186970306266 Li
0.988716267087617 0.8749833059318517 0.33249186970306266 Li
0.011283225248019899 0.12501669395679416 0.6675075978807384 Li
0.011283225248019897 0.6250166939567942 0.6675075978807384 Li
0.5112832252480198 0.12501669395679416 0.6675075978807385 Li
0.5112832252480198 0.6250166939567942 0.6675075978807384 Li
0.2612831801484809 0.3750090881683032 0.8324915245007298 Li
0.26128318014848084 0.8750090881683033 0.8324915245007298 Li
0.761283180148481 0.3750090881683032 0.8324915245007299 Li
0.7612831801484808 0.8750090881683033 0.8324915245007298 Li
0.0 0.0 0.0 Fe
-2.2895111796611283e-20 0.5 6.792975426986388e-23 Fe
0.5 -4.67489341868978e-21 1.8877824571332306e-21 Fe
0.5000000000000001 0.5 9.453488131975125e-21 Fe
-1.1447555898305641e-20 0.25 3.396487713493194e-23 Fe
6.314940878420425e-21 0.75 -2.588615398640182e-22 Fe
0.5 0.25 9.05876708357138e-21 Fe
0.5 0.7499999999999999 9.848209180378871e-21 Fe
0.24999974616781842 -5.5677114470253816e-11 0.49999973379190044 Fe
0.24999974616781848 0.4999999999443229 0.49999973379190044 Fe
0.7499997461678185 -5.5677114466457516e-11 0.4999997337919005 Fe
0.7499997461678185 0.4999999999443228 0.4999997337919005 Fe
0.24999974616781848 0.2499999999443229 0.49999973379190044 Fe
0.24999974616781845 0.749999999944323 0.49999973379190044 Fe
0.7499997461678185 0.2499999999443229 0.4999997337919005 Fe
0.7499997461678185 0.7499999999443229 0.49999973379190044 Fe
0.2648595271869323 0.12500767940181956 0.8220676382106623 P
0.26485952718693234 0.6250076794018196 0.8220676382106623 P
0.7648595271869323 0.1250076794018196 0.8220676382106624 P
0.7648595271869324 0.6250076794018196 0.8220676382106624 P
0.014859923633283097 0.3750120628643573 0.6779325287034619 P
0.014859923633283097 0.8750120628643573 0.6779325287034618 P
0.5148599236332831 0.3750120628643573 0.6779325287034619 P
0.5148599236332831 0.8750120628643573 0.6779325287034619 P
0.48513956870235375 0.12498793702428856 0.322066938880339 P
0.4851395687023538 0.6249879370242887 0.322066938880339 P
0.9851395687023538 0.12498793702428855 0.322066938880339 P
0.9851395687023538 0.6249879370242885 0.322066938880339 P
0.2351399651487044 0.37499232048682574 0.1779318293731387 P
0.23513996514870433 0.8749923204868257 0.1779318293731387 P
0.7351399651487043 0.37499232048682574 0.17793182937313867 P
0.7351399651487044 0.8749923204868257 0.17793182937313867 P
0.10980882147719177 0.12501234525637567 0.8554598265816986 O
0.10980882147719177 0.6250123452563756 0.8554598265816986 O
0.6098088214771917 0.12501234525637567 0.8554598265816986 O
0.6098088214771917 0.6250123452563757 0.8554598265816986 O
0.04924982674021697 0.3750037205333829 0.8419982455915178 O
0.049249826740216975 0.8750037205333829 0.8419982455915178 O
0.549249826740217 0.3750037205333829 0.8419982455915178 O
0.549249826740217 0.8750037205333829 0.8419982455915178 O
0.2992492147469849 0.12500276165648053 0.6580008580544906 O
0.2992492147469849 0.6250027616564805 0.6580008580544905 O
0.7992492147469848 0.1250027616564805 0.6580008580544906 O
0.799249214746985 0.6250027616564804 0.6580008580544906 O
0.35980960359427305 0.37501263667466816 0.6445385819856585 O
0.35980960359427305 0.8750126366746682 0.6445385819856585 O
0.859809603594273 0.3750126366746681 0.6445385819856586 O
0.859809603594273 0.8750126366746682 0.6445385819856585 O
0.08047297911425405 0.27064827946594305 0.6151319082517622 O
0.08047297911425405 0.7706482794659432 0.6151319082517622 O
0.5804729791142542 0.27064827946594305 0.6151319082517622 O
0.5804729791142541 0.770648279465943 0.6151319082517622 O
0.08047182220537885 0.47937733212499684 0.615142713785381 O
0.08047182220537885 0.9793773321249968 0.615142713785381 O
0.5804718222053787 0.4793773321249968 0.6151427137853811 O
0.5804718222053789 0.9793773321249968 0.615142713785381 O
0.41952767013025816 0.020622667763648843 0.38485675379842044 O
0.41952767013025816 0.5206226677636488 0.38485675379842044 O
0.9195276701302582 0.020622667763648846 0.38485675379842044 O
0.9195276701302582 0.5206226677636488 0.38485675379842044 O
0.16952792294067975 0.2706294385658114 0.11514138172655539 O
0.1695279229406798 0.7706294385658113 0.11514138172655539 O
0.6695279229406798 0.2706294385658114 0.11514138172655539 O
0.6695279229406799 0.7706294385658112 0.11514138172655537 O
0.1401898887413639 0.1249873632139776 0.3554608855981423 O
0.14018988874136393 0.6249873632139775 0.3554608855981423 O
0.6401898887413638 0.1249873632139776 0.3554608855981423 O
0.6401898887413638 0.6249873632139776 0.3554608855981423 O
0.20075027758865185 0.3749972382321654 0.3419986095293102 O
0.20075027758865185 0.8749972382321654 0.34199860952931027 O
0.7007502775886518 0.3749972382321654 0.3419986095293102 O
0.7007502775886519 0.8749972382321654 0.34199860952931027 O
0.45074966559541985 0.12499627935526293 0.15800122199228298 O
0.4507496655954198 0.6249962793552629 0.15800122199228298 O
0.9507496655954197 0.12499627935526292 0.15800122199228298 O
0.95074966559542 0.6249962793552629 0.15800122199228298 O
0.39019067085844494 0.3749876546322701 0.14453964100210256 O
0.3901906708584449 0.8749876546322699 0.14453964100210256 O
0.890190670858445 0.3749876546322701 0.14453964100210256 O
0.890190670858445 0.8749876546322701 0.14453964100210254 O
0.33047156939495703 0.22937056132283426 0.8848580858572451 O
0.3304715693949569 0.7293705613228343 0.884858085857245 O
0.830471569394957 0.22937056132283426 0.884858085857245 O
0.830471569394957 0.7293705613228343 0.884858085857245 O
0.16952749584237137 0.47935767046387906 0.11513342347526877 O
0.16952749584237137 0.979357670463879 0.11513342347526877 O
0.6695274958423713 0.47935767046387906 0.11513342347526875 O
0.6695274958423715 0.979357670463879 0.11513342347526875 O
0.41952651322138296 0.2293517204227028 0.38486755933203864 O
0.419526513221383 0.7293517204227028 0.3848675593320387 O
0.919526513221383 0.22935172042270277 0.38486755933203864 O
0.919526513221383 0.7293517204227028 0.3848675593320387 O
0.33047199649326575 0.020642329424766768 0.8848660441085323 O
0.33047199649326575 0.5206423294247668 0.8848660441085323 O
0.8304719964932659 0.02064232942476677 0.8848660441085323 O
0.8304719964932659 0.5206423294247667 0.8848660441085322 O
