Mn12O24                                 
1.0
       11.4294996262         0.0000000000         0.0000000000
       -5.7149085917         9.8966311519         0.0000000000
        0.0030943225        -0.0162083707        15.2881275771
   Mn    O   Ni   Na
   36   96   12    1
Direct
     0.084617235         0.168287426         0.319180995
     0.084613100         0.668298662         0.319163114
     0.584635079         0.168307677         0.319157988
     0.584620893         0.668299913         0.319159567
     0.333462983         0.168314859         0.319135398
     0.333458781         0.668317556         0.319119245
     0.833472371         0.168322876         0.319140106
     0.833474576         0.668341041         0.319148928
     0.333537757         0.417327732         0.319263577
     0.333532155         0.917320907         0.319242328
     0.833549678         0.417352915         0.319239587
     0.833545387         0.917351604         0.319251060
     0.166330084         0.082410097         0.683370531
     0.166320190         0.582379043         0.683374763
     0.666289926         0.082365215         0.683425307
     0.666300952         0.582379818         0.683411479
     0.166199878         0.331526101         0.682871699
     0.166181415         0.831515729         0.682873130
     0.666194797         0.331503421         0.682904720
     0.666186869         0.831497729         0.682901740
     0.415560454         0.331534386         0.682845473
     0.415544957         0.831519485         0.682851255
     0.915556252         0.331532985         0.682934403
     0.915558279         0.831545591         0.682912171
     0.499948919         0.499914438         0.999822855
     0.499936938         0.999908328         0.999807060
     0.999938786         0.499899507         0.999810696
     0.999941707         0.999904931         0.999823451
     0.499919355         0.249896511         0.999805689
     0.499917448         0.749884069         0.999790728
     0.999905944         0.249874458         0.999809563
     0.999940991         0.749888361         0.999821484
     0.249936238         0.499883682         0.999834299
     0.249945864         0.999908268         0.999839365
     0.749947786         0.499914587         0.999842525
     0.749951243         0.999903917         0.999834120
     0.000223938         0.494914860         0.616560221
     0.000255728         0.994959354         0.616553783
     0.500293851         0.494984150         0.616498768
     0.500291049         0.994980156         0.616515815
     0.000137063         0.250029594         0.616189957
     0.000151508         0.750032365         0.616182745
     0.500226736         0.250074029         0.616151273
     0.500233769         0.750077426         0.616134524
     0.244883999         0.494927317         0.616470456
     0.244897962         0.994939148         0.616488159
     0.744920135         0.494951159         0.616532981
     0.744898796         0.994931459         0.616539121
     0.248152390         0.246143281         0.617611527
     0.248155966         0.746142626         0.617618978
     0.748183250         0.246174514         0.617671013
     0.748179257         0.746173203         0.617661297
     0.002564294         0.002269470         0.383072674
     0.002576675         0.502280891         0.383054286
     0.502586544         0.002284748         0.383053899
     0.502577245         0.502282977         0.383063316
     0.002495189         0.255139738         0.382781506
     0.002512533         0.755154550         0.382773876
     0.502514541         0.255164474         0.382761657
     0.502495170         0.755184174         0.382746488
     0.249433860         0.002272966         0.383035004
     0.249395296         0.502278507         0.383033842
     0.749391258         0.002299212         0.383037806
     0.749404192         0.502305686         0.383037359
     0.251550645         0.253350407         0.384633869
     0.251553386         0.753368795         0.384624809
     0.751571894         0.253386676         0.384619385
     0.751545072         0.753369868         0.384624004
     0.167366326         0.084938072         0.255940914
     0.167340800         0.584912479         0.255935431
     0.667371929         0.084936820         0.255934834
     0.667358816         0.584940732         0.255945653
     0.167559922         0.331612110         0.255831182
     0.167553321         0.831614792         0.255823314
     0.667543948         0.331655830         0.255832553
     0.667555153         0.831634581         0.255828768
     0.416345179         0.082878545         0.256893545
     0.416327506         0.582855940         0.256891578
     0.916352391         0.082886145         0.256900042
     0.916344404         0.582909524         0.256890565
     0.413927794         0.331615478         0.255857319
     0.413939208         0.831625521         0.255842686
     0.913925171         0.331621051         0.255853236
     0.913920403         0.831634462         0.255863816
     0.168034881         0.086123049         0.062566161
     0.168039843         0.586136341         0.062557623
     0.668031752         0.086140886         0.062553123
     0.668045282         0.586138487         0.062570125
     0.167953596         0.334516287         0.062551707
     0.167997196         0.834531069         0.062555172
     0.667961538         0.334517777         0.062545136
     0.667957723         0.834523201         0.062547565
     0.417522848         0.085076518         0.063135885
     0.417515695         0.585069180         0.063135810
     0.917505801         0.085044377         0.063147284
     0.917491257         0.585014224         0.063140430
     0.416473538         0.334575355         0.062553689
     0.416491807         0.834575832         0.062539913
     0.916473866         0.334558696         0.062548794
     0.916487157         0.834544778         0.062563173
     0.083575100         0.165358722         0.937162936
     0.083584629         0.665360034         0.937161982
     0.583567619         0.165363148         0.937153101
     0.583595634         0.665367246         0.937156618
     0.082359336         0.414710879         0.936585486
     0.082369804         0.914726019         0.936605513
     0.582383752         0.414765418         0.936601520
     0.582383752         0.914749980         0.936576247
     0.331772268         0.165352374         0.937178850
     0.331780493         0.665327847         0.937158763
     0.831768870         0.165354401         0.937170684
     0.831797779         0.665370226         0.937173545
     0.331730515         0.413457662         0.937189221
     0.331734598         0.913466036         0.937182963
     0.831715763         0.413465887         0.937186122
     0.831727386         0.913459837         0.937196136
     0.082097918         0.166352719         0.743572176
     0.082061462         0.666310728         0.743558228
     0.582022071         0.166290715         0.743565261
     0.582012951         0.666287065         0.743553162
     0.083568968         0.416914046         0.745792568
     0.083563358         0.916923881         0.745787978
     0.583498776         0.416855186         0.745787621
     0.583485961         0.916824758         0.745796978
     0.334483057         0.166321307         0.743527532
     0.334492296         0.666295469         0.743532419
     0.834446371         0.166301146         0.743564844
     0.834464788         0.666305661         0.743539453
     0.334305644         0.418381274         0.743313253
     0.334278464         0.918336630         0.743338943
     0.834262371         0.418306112         0.743434012
     0.834253311         0.918293953         0.743424416
     0.083850749         0.417908072         0.315676451
     0.083864309         0.917921007         0.315679520
     0.583856821         0.417932838         0.315672249
     0.583859324         0.917931497         0.315664291
     0.416015238         0.081814118         0.678260863
     0.416017324         0.581823289         0.678233683
     0.916008890         0.081801392         0.678312480
     0.916006148         0.581791639         0.678296804
     0.249925777         0.249898911         0.999953091
     0.249938041         0.749899507         0.999936104
     0.749920428         0.249895960         0.999934554
     0.749936879         0.749895990         0.999947727
     0.584147990         0.418217808         0.498286694
