System                                  
   1.0000000000000000     
    -1.2713611511418701    3.4365803818408827    9.2405862783343586
     2.4146969127372171   -0.5693243169141544    8.8980014000394441
     1.2379396039796502    0.5339222275926333   -8.5272312833768495
  Y               Sn            
     1     2
Direct
    -0.0000094460101648   -0.0000056010575581    0.9999893643825174
     0.5478649178595522    0.4809849680103078    0.2197187018354764
     0.4521445281506838    0.5190206330472000    0.7802919337820128

  0.00000000E+00  0.00000000E+00  0.00000000E+00
  0.00000000E+00  0.00000000E+00  0.00000000E+00
  0.00000000E+00  0.00000000E+00  0.00000000E+00
