System                                  
   1.0000000000000000     
     5.1179292237269944   -0.0457542335077161    0.0038894202529655
     1.9803268658665505    4.7194826331082611    0.0042249728864778
    -0.0047502782926457   -0.0035864868188160    6.2357069082997754
  Li              V               Co              O             
     2     2     2     8
Direct
     0.3361798643703170    0.3361916521611890    0.7500012920931500
     0.6638196449812529    0.6638086591463351    0.2499993528539378
     0.6499271113317643    0.6499303648131295    0.7499964530433675
     0.3500752485000606    0.3500725667170311    0.2500031126423102
    -0.0000001025045862   -0.0000000464366073    0.5000000534880827
    -0.0000001258918482   -0.0000000092389372    0.0000004600231395
     0.2324057847005422    0.2324082905521558    0.0252087004229633
     0.2324067194694439    0.2324095235615860    0.4747919162316404
     0.7675923435886622    0.7675895065369340    0.5252101937301210
     0.7675932884755882    0.7675910719460304    0.9747905354346375
     0.2376219551721192    0.7248938683291353    0.2499998414037832
     0.2750999752471964    0.7623876178821298    0.7500006393112300
     0.7248992598405708    0.2376124894604904    0.2499998172388713
     0.7623780327189124    0.2751054445694022    0.7500006320827584

  0.00000000E+00  0.00000000E+00  0.00000000E+00
  0.00000000E+00  0.00000000E+00  0.00000000E+00
  0.00000000E+00  0.00000000E+00  0.00000000E+00
  0.00000000E+00  0.00000000E+00  0.00000000E+00
  0.00000000E+00  0.00000000E+00  0.00000000E+00
  0.00000000E+00  0.00000000E+00  0.00000000E+00
  0.00000000E+00  0.00000000E+00  0.00000000E+00
  0.00000000E+00  0.00000000E+00  0.00000000E+00
  0.00000000E+00  0.00000000E+00  0.00000000E+00
  0.00000000E+00  0.00000000E+00  0.00000000E+00
  0.00000000E+00  0.00000000E+00  0.00000000E+00
  0.00000000E+00  0.00000000E+00  0.00000000E+00
  0.00000000E+00  0.00000000E+00  0.00000000E+00
  0.00000000E+00  0.00000000E+00  0.00000000E+00
