System
1.0
5.132877820626154 -0.0041670298452267 0.0039374626633537
2.0244961772033983 4.716758950718228 0.0042692948888185
-0.0046473294655679 -0.0035119499078101 6.120857656120047
Li V Co O 
2 2 2 8 
direct
0.3372724988590441 0.33728510685537083 0.7499989731071967 Li
0.6627265011409591 0.6627148931446294 0.2500010268928034 Li
0.6476677003100256 0.6476684978977846 0.7500013871794998 V
0.3523332996899716 0.3523335021022177 0.24999861282049998 V
-1.5403793214720813e-20 -2.2868772920557167e-20 0.5000009999999975 Co
0.0 0.0 0.0 Co
0.23437354987146833 0.23437524473075086 0.0244974811840076 O
0.23437802532591384 0.23438022509382583 0.4755095535310737 O
0.7656209746740888 0.7656187749061699 0.5244924464689211 O
0.7656254501285276 0.7656247552692489 0.9755025188159923 O
0.2360423363296506 0.7279077731773242 0.24999775946770958 O
0.272091443101314 0.763959523970586 0.7500014764759173 O
0.7279085568986863 0.23604147602941866 0.2499985235240822 O
0.7639586636703466 0.27209122682267783 0.7500022405322903 O
