System                                  
   1.0000000000000000     
    10.2852317212148616   -0.0002002927936414   -5.4002187051931321
    -2.8351896634306994    9.8867470578824275   -5.4002254834420542
     0.0099513128610022    0.0132069081834311   12.5149077806612770
  Mg              Mn              O             
    16    32    64
Direct
     0.1874957906038429    0.3125037440209513    0.3750002487672623
     0.1874959240830025    0.3125040741245330    0.8750005037235671
     0.1874957055894359    0.8125043059415124    0.3750000999605827
     0.1874951127181616    0.8125038482213702    0.8750001363476763
     0.6874951186761638    0.3125040850569998    0.3749999786281299
     0.6874949910936563    0.3125038285722671    0.8750000316718812
     0.6874955183469146    0.8125040261554071    0.3750002274261345
     0.6874951279003942    0.8125039751969895    0.8750001220315311
     0.3125040173926311    0.1874949959409022    0.1250000422243432
     0.3125040711537492    0.1874947912358393    0.6249998486312156
     0.3125039468617894    0.6874951780184978    0.1250002369069983
     0.3125041032343587    0.6874950754341685    0.6250001364016885
     0.8125039404761525    0.1874949720833927    0.1249999210101481
     0.8125042848256321    0.1874949742669123    0.6250002639585945
     0.8125044570402520    0.6874955140664959    0.1250004449773898
     0.8125043010393440    0.6874949063479221    0.6250002529184759
     1.0000009072133620    0.9999995405541776    0.2500000165089261
     1.0000000107794260    1.0000004429102392    0.7500005732064827
     0.9999996460074673    0.5000003159873845    0.2500003726476087
     0.9999998166335360    0.4999999506762282    0.7500004531560118
     0.4999996163172983    0.9999993444952179    0.2500003934638865
     0.4999998040591578    1.0000003978005616    0.7500003994634075
     0.4999996494226692    0.4999995275267295    0.2500004212146982
     0.4999998326647880    0.4999999615195583    0.7500004633655639
    -0.0000004784180806    0.2500000789149038    0.0000003979394807
    -0.0000002331475979    0.2499996890080324    0.5000004993262854
    -0.0000004374162839    0.7499999105563574    0.0000003476957214
     0.0000003393586000    0.7499995019456439    0.5000003779719914
     0.5000001544136876    0.2499999444327803    0.0000003819923377
     0.5000002727183483    0.2499994600164482    0.5000005933935228
     0.4999995200798493    0.7500003007891564    0.0000005557262882
     0.5000001371004764    0.7499998138515170    0.5000004868982344
     0.2500003390296123    0.9999990367387303    0.2500002148326501
     0.2500002663361544    0.9999995798679057    0.7500004734554626
     0.2500005583673204    0.4999995162597014    0.2500005828367510
     0.2500002863087866    0.4999990625950186    0.7500005064316888
     0.7500000738684087    0.9999998697062161    0.2500003683835293
     0.7500001825952549    0.9999994503871201    0.7500005577394822
     0.7500003905716440    0.4999992619462581    0.2500001901656642
     0.7500002873324353    0.4999991331806158    0.7500005292211525
     0.0000004152440385   -0.0000003218901642    0.0000002836547375
     0.0000009256364822    0.0000009996178862    0.5000000595655845
     0.0000002229829746    0.5000005525330740    0.0000000232649434
    -0.0000004461841572    0.5000008773436153    0.5000001821485206
     0.5000003314637520   -0.0000003727265724    0.0000003694366305
     0.4999998207958008    0.0000008922636873    0.5000001411337996
     0.5000002514075468    0.4999996412490733    0.0000005746558491
     0.5000000326668058    0.5000008723992180    0.5000003359600750
     0.3768462465355567    0.3888453280677467    0.2537061221192435
     0.3768462561414681    0.3888453211190449    0.7537060447156589
     0.3768464665408198    0.8888455796008712    0.2537060474041464
     0.3768461099404535    0.8888449517175269    0.7537060779661920
     0.8768462322393146    0.3888452598052444    0.2537061750216308
     0.8768461765261737    0.3888450842711348    0.7537061211161044
     0.8768461422272738    0.8888438563188825    0.2537057033439249
     0.8768462835332076    0.8888448012582767    0.7537059894242114
     0.3850904341014343    0.1231295813549771    0.4962498069817302
     0.3850900951257493    0.1231294866607819    0.9962499788926220
     0.3850900910891829    0.6231294268636577    0.4962499028481819
     0.3850902902181405    0.6231297339419245    0.9962500505925176
     0.8850901111666269    0.1231297075278884    0.4962498666693285
     0.8850900938888275    0.1231296544487861    0.9962499152251864
     0.8850902238473412    0.6231295125402996    0.4962498663388304
     0.8850900055337446    0.6231296142435057    0.9962498559632300
     0.1111549253220695    0.1231535254050472    0.4962950240517566
     0.1111552819702686    0.1231534114643695    0.9962951038784227
     0.1111552968443407    0.6231532258521391    0.4962950788425773
     0.1111551869020606    0.6231533105253350    0.9962950443048695
     0.6111558244470944    0.1231534613220591    0.4962951354429707
     0.6111554509321677    0.1231531811446294    0.9962951813688279
     0.6111556902783664    0.6231533966995149    0.4962952585518840
     0.6111556431148684    0.6231536599430296    0.9962952636542358
     0.1231533673506741    0.1111558463220382    0.2462946044880536
     0.1231536020614935    0.1111552681347416    0.7462951679210020
     0.1231536456023909    0.6111550945565351    0.2462952239661252
     0.1231536511629214    0.6111553278679470    0.7462951976902695
     0.6231536268221474    0.1111560370847644    0.2462949215095074
     0.6231537364273573    0.1111552418961231    0.7462953202441434
     0.6231536499359303    0.6111557235642484    0.2462949887688539
     0.6231537592844326    0.6111556056365016    0.7462954062238417
     0.1231298764238175    0.3850898156978004    0.2462500289716563
     0.1231298537401543    0.3850899194992982    0.7462498627028433
     0.1231295969174068    0.8850903593743831    0.2462497272870198
     0.1231298393690289    0.8850897434412198    0.7462499952610265
     0.6231299995282608    0.3850902457194632    0.2462501511098747
     0.6231298375624590    0.3850900514118305    0.7462499929693295
     0.6231299693391348    0.8850901626665622    0.2462500894071402
     0.6231298897388948    0.8850897682843708    0.7462500266125165
     0.1149092127976164    0.3768698046385145    0.0037508479895748
     0.1149092032178427    0.3768698247346898    0.5037505912570278
     0.1149091150895680    0.8768699383619308    0.0037506315675947
     0.1149093380739772    0.8768697596530294    0.5037505049208290
     0.6149095080257251    0.3768700527995361    0.0037509429831273
     0.6149098712781329    0.3768700780366704    0.5037507708155626
     0.6149090170033142    0.8768698722305979    0.0037507677373374
     0.6149099589524966    0.8768697071078502    0.5037507335136595
     0.3768702952681537    0.1149093575435882    0.2537505795314065
     0.3768699846897781    0.1149087810745239    0.7537505816877911
     0.3768699889683653    0.6149087136189673    0.2537506310378481
     0.3768701082382735    0.6149091558850283    0.7537506725015086
     0.8768698667115191    0.1149098860957411    0.2537506908027885
     0.8768701825975103    0.1149088538963096    0.7537508033563156
     0.8768701650463961    0.6149088520041088    0.2537507066339409
     0.8768700620546136    0.6149090762477321    0.7537507490578428
     0.3888441366288029    0.3768463617309045    0.0037059130727970
     0.3888438387414001    0.3768462433673111    0.5037057122187818
     0.3888453416500843    0.8768459666173956    0.0037060215067703
     0.3888439164543032    0.8768460444567892    0.5037056653676397
     0.8888453056908080    0.3768459453242643    0.0037061260584033
     0.8888451841737882    0.3768460715949042    0.5037059528251228
     0.8888450523206505    0.8768461104632063    0.0037059503536072
     0.8888434967444750    0.8768459563056121    0.5037055569319272

  0.00000000E+00  0.00000000E+00  0.00000000E+00
  0.00000000E+00  0.00000000E+00  0.00000000E+00
  0.00000000E+00  0.00000000E+00  0.00000000E+00
  0.00000000E+00  0.00000000E+00  0.00000000E+00
  0.00000000E+00  0.00000000E+00  0.00000000E+00
  0.00000000E+00  0.00000000E+00  0.00000000E+00
  0.00000000E+00  0.00000000E+00  0.00000000E+00
  0.00000000E+00  0.00000000E+00  0.00000000E+00
  0.00000000E+00  0.00000000E+00  0.00000000E+00
  0.00000000E+00  0.00000000E+00  0.00000000E+00
  0.00000000E+00  0.00000000E+00  0.00000000E+00
  0.00000000E+00  0.00000000E+00  0.00000000E+00
  0.00000000E+00  0.00000000E+00  0.00000000E+00
  0.00000000E+00  0.00000000E+00  0.00000000E+00
  0.00000000E+00  0.00000000E+00  0.00000000E+00
  0.00000000E+00  0.00000000E+00  0.00000000E+00
  0.00000000E+00  0.00000000E+00  0.00000000E+00
  0.00000000E+00  0.00000000E+00  0.00000000E+00
  0.00000000E+00  0.00000000E+00  0.00000000E+00
  0.00000000E+00  0.00000000E+00  0.00000000E+00
  0.00000000E+00  0.00000000E+00  0.00000000E+00
  0.00000000E+00  0.00000000E+00  0.00000000E+00
  0.00000000E+00  0.00000000E+00  0.00000000E+00
  0.00000000E+00  0.00000000E+00  0.00000000E+00
  0.00000000E+00  0.00000000E+00  0.00000000E+00
  0.00000000E+00  0.00000000E+00  0.00000000E+00
  0.00000000E+00  0.00000000E+00  0.00000000E+00
  0.00000000E+00  0.00000000E+00  0.00000000E+00
  0.00000000E+00  0.00000000E+00  0.00000000E+00
  0.00000000E+00  0.00000000E+00  0.00000000E+00
  0.00000000E+00  0.00000000E+00  0.00000000E+00
  0.00000000E+00  0.00000000E+00  0.00000000E+00
  0.00000000E+00  0.00000000E+00  0.00000000E+00
  0.00000000E+00  0.00000000E+00  0.00000000E+00
  0.00000000E+00  0.00000000E+00  0.00000000E+00
  0.00000000E+00  0.00000000E+00  0.00000000E+00
  0.00000000E+00  0.00000000E+00  0.00000000E+00
  0.00000000E+00  0.00000000E+00  0.00000000E+00
  0.00000000E+00  0.00000000E+00  0.00000000E+00
  0.00000000E+00  0.00000000E+00  0.00000000E+00
  0.00000000E+00  0.00000000E+00  0.00000000E+00
  0.00000000E+00  0.00000000E+00  0.00000000E+00
  0.00000000E+00  0.00000000E+00  0.00000000E+00
  0.00000000E+00  0.00000000E+00  0.00000000E+00
  0.00000000E+00  0.00000000E+00  0.00000000E+00
  0.00000000E+00  0.00000000E+00  0.00000000E+00
  0.00000000E+00  0.00000000E+00  0.00000000E+00
  0.00000000E+00  0.00000000E+00  0.00000000E+00
  0.00000000E+00  0.00000000E+00  0.00000000E+00
  0.00000000E+00  0.00000000E+00  0.00000000E+00
  0.00000000E+00  0.00000000E+00  0.00000000E+00
  0.00000000E+00  0.00000000E+00  0.00000000E+00
  0.00000000E+00  0.00000000E+00  0.00000000E+00
  0.00000000E+00  0.00000000E+00  0.00000000E+00
  0.00000000E+00  0.00000000E+00  0.00000000E+00
  0.00000000E+00  0.00000000E+00  0.00000000E+00
  0.00000000E+00  0.00000000E+00  0.00000000E+00
  0.00000000E+00  0.00000000E+00  0.00000000E+00
  0.00000000E+00  0.00000000E+00  0.00000000E+00
  0.00000000E+00  0.00000000E+00  0.00000000E+00
  0.00000000E+00  0.00000000E+00  0.00000000E+00
  0.00000000E+00  0.00000000E+00  0.00000000E+00
  0.00000000E+00  0.00000000E+00  0.00000000E+00
  0.00000000E+00  0.00000000E+00  0.00000000E+00
  0.00000000E+00  0.00000000E+00  0.00000000E+00
  0.00000000E+00  0.00000000E+00  0.00000000E+00
  0.00000000E+00  0.00000000E+00  0.00000000E+00
  0.00000000E+00  0.00000000E+00  0.00000000E+00
  0.00000000E+00  0.00000000E+00  0.00000000E+00
  0.00000000E+00  0.00000000E+00  0.00000000E+00
  0.00000000E+00  0.00000000E+00  0.00000000E+00
  0.00000000E+00  0.00000000E+00  0.00000000E+00
  0.00000000E+00  0.00000000E+00  0.00000000E+00
  0.00000000E+00  0.00000000E+00  0.00000000E+00
  0.00000000E+00  0.00000000E+00  0.00000000E+00
  0.00000000E+00  0.00000000E+00  0.00000000E+00
  0.00000000E+00  0.00000000E+00  0.00000000E+00
  0.00000000E+00  0.00000000E+00  0.00000000E+00
  0.00000000E+00  0.00000000E+00  0.00000000E+00
  0.00000000E+00  0.00000000E+00  0.00000000E+00
  0.00000000E+00  0.00000000E+00  0.00000000E+00
  0.00000000E+00  0.00000000E+00  0.00000000E+00
  0.00000000E+00  0.00000000E+00  0.00000000E+00
  0.00000000E+00  0.00000000E+00  0.00000000E+00
  0.00000000E+00  0.00000000E+00  0.00000000E+00
  0.00000000E+00  0.00000000E+00  0.00000000E+00
  0.00000000E+00  0.00000000E+00  0.00000000E+00
  0.00000000E+00  0.00000000E+00  0.00000000E+00
  0.00000000E+00  0.00000000E+00  0.00000000E+00
  0.00000000E+00  0.00000000E+00  0.00000000E+00
  0.00000000E+00  0.00000000E+00  0.00000000E+00
  0.00000000E+00  0.00000000E+00  0.00000000E+00
  0.00000000E+00  0.00000000E+00  0.00000000E+00
  0.00000000E+00  0.00000000E+00  0.00000000E+00
  0.00000000E+00  0.00000000E+00  0.00000000E+00
  0.00000000E+00  0.00000000E+00  0.00000000E+00
  0.00000000E+00  0.00000000E+00  0.00000000E+00
  0.00000000E+00  0.00000000E+00  0.00000000E+00
  0.00000000E+00  0.00000000E+00  0.00000000E+00
  0.00000000E+00  0.00000000E+00  0.00000000E+00
  0.00000000E+00  0.00000000E+00  0.00000000E+00
  0.00000000E+00  0.00000000E+00  0.00000000E+00
  0.00000000E+00  0.00000000E+00  0.00000000E+00
  0.00000000E+00  0.00000000E+00  0.00000000E+00
  0.00000000E+00  0.00000000E+00  0.00000000E+00
  0.00000000E+00  0.00000000E+00  0.00000000E+00
  0.00000000E+00  0.00000000E+00  0.00000000E+00
  0.00000000E+00  0.00000000E+00  0.00000000E+00
  0.00000000E+00  0.00000000E+00  0.00000000E+00
  0.00000000E+00  0.00000000E+00  0.00000000E+00
  0.00000000E+00  0.00000000E+00  0.00000000E+00
  0.00000000E+00  0.00000000E+00  0.00000000E+00
