NMC-811                                 
   1.00000000000000     
     5.7482230341002509    0.0051440632630441    0.0019203821836895
    -2.8732315839255342    5.0241274831995906   -0.0254934454575202
     0.0047980610583058   -0.0691568424590962   14.2706200992076919
   Li   Ni   O    Co   Mn
    10    10    24     1     1
Direct
  0.1659441249271921  0.3377267354703132  0.1655599485178962
  0.1678063214083853  0.8333281493176121  0.1679105154305094
  0.6691730308509563  0.3407859063531757  0.1667019800055922
  0.4970244627377521  0.5002904875539296  0.5008547551976049
  0.5067852055341749  0.9978947233751636  0.5035938218997227
  0.9963280945625809  0.9899978779362484  0.5013662358177787
  0.3328730755841272  0.1678781040635876  0.8293923329738812
  0.3344293713216238  0.6693835951751785  0.8318513977486186
  0.8351647905309167  0.1658861164825133  0.8313526734021862
  0.8295264011095265  0.6655355271905520  0.8313106652788073
  0.0009921248143482  0.0017223451413408  0.9999908069386765
  0.0013915496523751  0.5023257483035046  0.9959171328458654
  0.5026101579582830  0.0031511207208708  0.9999527179506028
  0.5010608886713167  0.5033968086186715  0.9999856608031676
  0.3324035427120342  0.1654761073963469  0.3334604192630103
  0.3326888987680215  0.6657145051241532  0.3337997598686223
  0.8325887070271973  0.6657582563019989  0.3335908325407696
  0.1640485930409498  0.3310666199947170  0.6664300133446939
  0.1654884253093401  0.8303281986004785  0.6664069459568349
  0.6663104561955063  0.3327151600411248  0.6664827937871012
  0.3389971866865006  0.1730251818980186  0.0678483184671867
  0.3117465794561273  0.6367811938657715  0.0706590690203127
  0.8264612784810500  0.1935699398924650  0.0689901464159924
  0.8675949923013706  0.6792142931012953  0.0703512172622781
  0.0183072936728687  0.0309122532605905  0.2578627172864623
  0.9793605135182506  0.4865544697759308  0.2601236080059794
  0.5037480772296122  0.0164151767429248  0.2606507424706043
  0.5048985244934303  0.4896614351507459  0.2656314931133351
  0.1611499189959567  0.3143871891391518  0.4061738637011797
  0.1601042286160713  0.8416985657021290  0.4011351208851375
  0.6462915832431427  0.3002020027836448  0.4088014555651264
  0.6858435250180416  0.8445855499452720  0.4070852996296726
  0.3310326474166427  0.1628657229787333  0.5990492857135643
  0.3531562216228225  0.6927277621785277  0.5967210868417820
  0.8378450845173290  0.1396776203157484  0.5978500886303162
  0.8017336862108927  0.6552099882242951  0.5971086987815889
  0.9909111948932962  0.9741345001006809  0.7437220274889941
  0.9995212882819632  0.4999161297409707  0.7344999403169282
  0.5234704519295826  0.0159891876975793  0.7435187297348548
  0.4839344034350525  0.5090736261253904  0.7430195667232278
  0.1399959221642654  0.3176926891498357  0.9224505594324616
  0.1847456539144071  0.8237490712943836  0.9240232880184470
  0.6785029349118527  0.3642825999300064  0.9228080945019549
  0.6640530606371359  0.8327203771733336  0.9321785115998416
  0.6651561735894629  0.8311836200512476  0.6705704374536566
  0.8325045867213128  0.1656118241080360  0.3336417412236141
 
  0.00000000E+00  0.00000000E+00  0.00000000E+00
  0.00000000E+00  0.00000000E+00  0.00000000E+00
  0.00000000E+00  0.00000000E+00  0.00000000E+00
  0.00000000E+00  0.00000000E+00  0.00000000E+00
  0.00000000E+00  0.00000000E+00  0.00000000E+00
  0.00000000E+00  0.00000000E+00  0.00000000E+00
  0.00000000E+00  0.00000000E+00  0.00000000E+00
  0.00000000E+00  0.00000000E+00  0.00000000E+00
  0.00000000E+00  0.00000000E+00  0.00000000E+00
  0.00000000E+00  0.00000000E+00  0.00000000E+00
  0.00000000E+00  0.00000000E+00  0.00000000E+00
  0.00000000E+00  0.00000000E+00  0.00000000E+00
  0.00000000E+00  0.00000000E+00  0.00000000E+00
  0.00000000E+00  0.00000000E+00  0.00000000E+00
  0.00000000E+00  0.00000000E+00  0.00000000E+00
  0.00000000E+00  0.00000000E+00  0.00000000E+00
  0.00000000E+00  0.00000000E+00  0.00000000E+00
  0.00000000E+00  0.00000000E+00  0.00000000E+00
  0.00000000E+00  0.00000000E+00  0.00000000E+00
  0.00000000E+00  0.00000000E+00  0.00000000E+00
  0.00000000E+00  0.00000000E+00  0.00000000E+00
  0.00000000E+00  0.00000000E+00  0.00000000E+00
  0.00000000E+00  0.00000000E+00  0.00000000E+00
  0.00000000E+00  0.00000000E+00  0.00000000E+00
  0.00000000E+00  0.00000000E+00  0.00000000E+00
  0.00000000E+00  0.00000000E+00  0.00000000E+00
  0.00000000E+00  0.00000000E+00  0.00000000E+00
  0.00000000E+00  0.00000000E+00  0.00000000E+00
  0.00000000E+00  0.00000000E+00  0.00000000E+00
  0.00000000E+00  0.00000000E+00  0.00000000E+00
  0.00000000E+00  0.00000000E+00  0.00000000E+00
  0.00000000E+00  0.00000000E+00  0.00000000E+00
  0.00000000E+00  0.00000000E+00  0.00000000E+00
  0.00000000E+00  0.00000000E+00  0.00000000E+00
  0.00000000E+00  0.00000000E+00  0.00000000E+00
  0.00000000E+00  0.00000000E+00  0.00000000E+00
  0.00000000E+00  0.00000000E+00  0.00000000E+00
  0.00000000E+00  0.00000000E+00  0.00000000E+00
  0.00000000E+00  0.00000000E+00  0.00000000E+00
  0.00000000E+00  0.00000000E+00  0.00000000E+00
  0.00000000E+00  0.00000000E+00  0.00000000E+00
  0.00000000E+00  0.00000000E+00  0.00000000E+00
  0.00000000E+00  0.00000000E+00  0.00000000E+00
  0.00000000E+00  0.00000000E+00  0.00000000E+00
  0.00000000E+00  0.00000000E+00  0.00000000E+00
  0.00000000E+00  0.00000000E+00  0.00000000E+00
