NMC-811                                 
   1.00000000000000     
     5.7797844005599677    0.0439299866479999    0.0463730025638048
    -2.8513315312597336    5.0269758097731954   -0.0452296991605742
     0.1134466222162437   -0.0630935073832115   14.1894576652120179
   Li   Ni   O    Co   Mn
    12    10    24     1     1
Direct
  0.1698302209843107  0.3298629268530281  0.1657391337063819
  0.1648046730757656  0.8306731248711893  0.1679983136685260
  0.6674615400398658  0.3291253503515197  0.1675805380824319
  0.6733949619413327  0.8356781713381071  0.1648738941948159
  0.5058034715884080  0.5024323195408268  0.4985840162228489
  0.5052321072769781  0.9987539791826779  0.5011613039425269
  0.9977091889425910  0.4937528490696780  0.5034211810071626
  0.9965653051410827  0.9942697515295614  0.4989887641185070
  0.3280170258580252  0.1697524995510510  0.8316685939802150
  0.3328889882848978  0.6766045635884884  0.8334595489750151
  0.8282907329087580  0.1652247132302140  0.8334376124746635
  0.8209511448024507  0.6689265359656725  0.8327270497959731
  0.0012469082856398  0.0029169032089540  0.9988088380956647
  0.0007827078524452  0.5030238367400462  0.9992068137283713
  0.5007605965209184  0.0029863941595000  0.9991166123662459
  0.5007345431263911  0.5029401780539124  0.9995223265830577
  0.3356253860106203  0.1653218438686688  0.3340263129752217
  0.3345935991433389  0.6649540812855245  0.3337041725042424
  0.8357745828514497  0.6648821295569166  0.3336957080725713
  0.1643738766134216  0.3323369815332243  0.6671952239275484
  0.1643278501521330  0.8325116920838280  0.6667238459301825
  0.6644210301670924  0.3326024605766967  0.6670858446582523
  0.3637440010239855  0.1906790271171298  0.0730114913771132
  0.3131011311986993  0.6398571886632817  0.0744226774916380
  0.8133506111026618  0.1408245337878724  0.0722075692162220
  0.8645556586275277  0.6909448855868332  0.0731431625084228
  0.9882067684005152  0.0077283021433065  0.2527307115966546
  0.9893094933553793  0.4865407985221094  0.2595009196717422
  0.5160139168954230  0.0156995890735402  0.2593842930938727
  0.5064039888887504  0.4852480139781675  0.2634364500003506
  0.1548864677003829  0.3146150503802077  0.4087157975531759
  0.1649659307026939  0.8458131997894643  0.4047613915386104
  0.6844509585587197  0.3224696636190661  0.4152363799302837
  0.6807589398919731  0.8422187485661832  0.4072698310230289
  0.3323727926885762  0.1637697603284631  0.5996454915219590
  0.3477279715632592  0.6930463504796754  0.5916688003346577
  0.8471588538370072  0.1495777027672042  0.5940845015433128
  0.8035909027457191  0.6477631969070081  0.5925039997041543
  0.9794965116666101  0.9699928655802464  0.7416227560931027
  0.9974435910307846  0.5027855208966016  0.7345424761294210
  0.5251202608506966  0.0176814020836582  0.7417971199180832
  0.4809806817964426  0.5141453015398932  0.7410985742516230
  0.1372060552245911  0.3149510436949117  0.9245112964157215
  0.1895432188697995  0.8654774406268798  0.9246773630638636
  0.6883753770131872  0.3665103698030581  0.9247429751092896
  0.6377700307531410  0.8149067499169643  0.9257231897969925
  0.6642957075871970  0.8322650601289373  0.6670440344079701
  0.8355796164584077  0.1649548278800746  0.3337910656983262
 
  0.00000000E+00  0.00000000E+00  0.00000000E+00
  0.00000000E+00  0.00000000E+00  0.00000000E+00
  0.00000000E+00  0.00000000E+00  0.00000000E+00
  0.00000000E+00  0.00000000E+00  0.00000000E+00
  0.00000000E+00  0.00000000E+00  0.00000000E+00
  0.00000000E+00  0.00000000E+00  0.00000000E+00
  0.00000000E+00  0.00000000E+00  0.00000000E+00
  0.00000000E+00  0.00000000E+00  0.00000000E+00
  0.00000000E+00  0.00000000E+00  0.00000000E+00
  0.00000000E+00  0.00000000E+00  0.00000000E+00
  0.00000000E+00  0.00000000E+00  0.00000000E+00
  0.00000000E+00  0.00000000E+00  0.00000000E+00
  0.00000000E+00  0.00000000E+00  0.00000000E+00
  0.00000000E+00  0.00000000E+00  0.00000000E+00
  0.00000000E+00  0.00000000E+00  0.00000000E+00
  0.00000000E+00  0.00000000E+00  0.00000000E+00
  0.00000000E+00  0.00000000E+00  0.00000000E+00
  0.00000000E+00  0.00000000E+00  0.00000000E+00
  0.00000000E+00  0.00000000E+00  0.00000000E+00
  0.00000000E+00  0.00000000E+00  0.00000000E+00
  0.00000000E+00  0.00000000E+00  0.00000000E+00
  0.00000000E+00  0.00000000E+00  0.00000000E+00
  0.00000000E+00  0.00000000E+00  0.00000000E+00
  0.00000000E+00  0.00000000E+00  0.00000000E+00
  0.00000000E+00  0.00000000E+00  0.00000000E+00
  0.00000000E+00  0.00000000E+00  0.00000000E+00
  0.00000000E+00  0.00000000E+00  0.00000000E+00
  0.00000000E+00  0.00000000E+00  0.00000000E+00
  0.00000000E+00  0.00000000E+00  0.00000000E+00
  0.00000000E+00  0.00000000E+00  0.00000000E+00
  0.00000000E+00  0.00000000E+00  0.00000000E+00
  0.00000000E+00  0.00000000E+00  0.00000000E+00
  0.00000000E+00  0.00000000E+00  0.00000000E+00
  0.00000000E+00  0.00000000E+00  0.00000000E+00
  0.00000000E+00  0.00000000E+00  0.00000000E+00
  0.00000000E+00  0.00000000E+00  0.00000000E+00
  0.00000000E+00  0.00000000E+00  0.00000000E+00
  0.00000000E+00  0.00000000E+00  0.00000000E+00
  0.00000000E+00  0.00000000E+00  0.00000000E+00
  0.00000000E+00  0.00000000E+00  0.00000000E+00
  0.00000000E+00  0.00000000E+00  0.00000000E+00
  0.00000000E+00  0.00000000E+00  0.00000000E+00
  0.00000000E+00  0.00000000E+00  0.00000000E+00
  0.00000000E+00  0.00000000E+00  0.00000000E+00
  0.00000000E+00  0.00000000E+00  0.00000000E+00
  0.00000000E+00  0.00000000E+00  0.00000000E+00
  0.00000000E+00  0.00000000E+00  0.00000000E+00
  0.00000000E+00  0.00000000E+00  0.00000000E+00
