NMC-811
1.0
        5.8106899261         0.0000000000         0.0000000000
       -2.9053449631         5.0322050896         0.0000000000
        0.0000000000         0.0000000000        14.4018554688
   Li   Ni    O   Co   Mn
   12   10   24    1    1
Direct
     0.166666999         0.333332986         0.166666999
     0.166666999         0.833333015         0.166666999
     0.666666985         0.333332986         0.166666999
     0.666666985         0.833333015         0.166666999
     0.500000000         0.500000000         0.500000000
     0.500000000         0.000000000         0.500000000
     0.000000000         0.500000000         0.500000000
     0.000000000         0.000000000         0.500000000
     0.333332986         0.166666999         0.833333015
     0.333332986         0.666666985         0.833333015
     0.833333015         0.166666999         0.833333015
     0.833333015         0.666666985         0.833333015
     0.000000000         0.000000000         0.000000000
     0.000000000         0.500000000         0.000000000
     0.500000000         0.000000000         0.000000000
     0.500000000         0.500000000         0.000000000
     0.333332986         0.166666999         0.333332986
     0.333332986         0.666666985         0.333332986
     0.833333015         0.666666985         0.333332986
     0.166666999         0.333332986         0.666666985
     0.166666999         0.833333015         0.666666985
     0.666666985         0.333332986         0.666666985
     0.333332986         0.166666999         0.075576998
     0.333332986         0.666666985         0.075576998
     0.833333015         0.166666999         0.075576998
     0.833333015         0.666666985         0.075576998
     0.000000000         0.000000000         0.257755995
     0.000000000         0.500000000         0.257755995
     0.500000000         0.000000000         0.257755995
     0.500000000         0.500000000         0.257755995
     0.166666999         0.333332986         0.408910006
     0.166666999         0.833333015         0.408910006
     0.666666985         0.333332986         0.408910006
     0.666666985         0.833333015         0.408910006
     0.333332986         0.166666999         0.591090024
     0.333332986         0.666666985         0.591090024
     0.833333015         0.166666999         0.591090024
     0.833333015         0.666666985         0.591090024
     0.000000000         0.000000000         0.742244005
     0.000000000         0.500000000         0.742244005
     0.500000000         0.000000000         0.742244005
     0.500000000         0.500000000         0.742244005
     0.166666999         0.333332986         0.924422979
     0.166666999         0.833333015         0.924422979
     0.666666985         0.333332986         0.924422979
     0.666666985         0.833333015         0.924422979
     0.666666985         0.833333015         0.666666985
     0.833333015         0.166666999         0.333332986
