NMC-811                                 
   1.00000000000000     
     5.6591532460534140   -0.0001259531085334    0.0001631626016981
    -2.8296851681164186    4.9000426516866460    0.0164143632702016
     0.0003986857553645    0.0489823186119954   14.9267830349405699
   Ni   O    Co   Mn
    10    24     1     1
Direct
  0.9987533224624329  0.9967818360408366  0.9988239718786911
  0.9987486234957602  0.4968031809266203  0.9988452367116810
  0.4987445081175759  0.9967913908810969  0.9988276679827949
  0.4987297882469834  0.4967550918316635  0.9987649069140676
  0.3332738461404975  0.1668948674521641  0.3346522251563921
  0.3332915979897800  0.6669332304659982  0.3346677759101376
  0.8331966593195891  0.6669322570454108  0.3346832687322941
  0.1679493970816701  0.3362710153297880  0.6664923923331016
  0.1679533563693828  0.8362400089315472  0.6665641564935191
  0.6679340268972505  0.3363025535184235  0.6664985556586431
  0.3314894432353322  0.1622006774676113  0.0618344909026065
  0.3315336179063512  0.6620681521631137  0.0618261418442921
  0.8314227699041499  0.1621025268508766  0.0618650440727781
  0.8312388833958976  0.6620485020480184  0.0618399360329615
  0.0018473362283390  0.0002261270336810  0.2705471669374994
  0.0020270328715600  0.5044551127730746  0.2705142865361125
  0.4980412845002894  0.0001965777285696  0.2705287255133041
  0.5005830423402685  0.5015001801478992  0.2717511006710158
  0.1688353536571159  0.3337023761761371  0.3988266017389674
  0.1658898256764479  0.8322995823103861  0.3975504275357258
  0.6645273431852597  0.3336434091740917  0.3988490907758918
  0.6645842154088731  0.8296943125960506  0.3988510409203564
  0.3353580355084056  0.1709424639156592  0.6035636756957894
  0.3362986354432401  0.6715696751266511  0.6039991259078057
  0.8348525654798755  0.1701159082261121  0.6039493143382251
  0.8349473971960182  0.6716025618055134  0.6040048258120631
  0.9995598150390030  0.0010311646583542  0.7290514790725744
  0.0004874887243518  0.5014098872962518  0.7294999308657129
  0.5012876443898077  0.0010461126442994  0.7290486990622125
  0.5012130247199554  0.5029044132878325  0.7289646926854650
  0.1659388206526517  0.3313029751476266  0.9357771146486931
  0.1660300896051518  0.8312409269154661  0.9358004262600352
  0.6661101570266917  0.3312850690754759  0.9357853296781381
  0.6660153578592751  0.8313340799919418  0.9357726472840481
  0.6679762526058970  0.8362978768550025  0.6664487080242997
  0.8333293513188895  0.1670738261607687  0.3347297314121386
 
  0.00000000E+00  0.00000000E+00  0.00000000E+00
  0.00000000E+00  0.00000000E+00  0.00000000E+00
  0.00000000E+00  0.00000000E+00  0.00000000E+00
  0.00000000E+00  0.00000000E+00  0.00000000E+00
  0.00000000E+00  0.00000000E+00  0.00000000E+00
  0.00000000E+00  0.00000000E+00  0.00000000E+00
  0.00000000E+00  0.00000000E+00  0.00000000E+00
  0.00000000E+00  0.00000000E+00  0.00000000E+00
  0.00000000E+00  0.00000000E+00  0.00000000E+00
  0.00000000E+00  0.00000000E+00  0.00000000E+00
  0.00000000E+00  0.00000000E+00  0.00000000E+00
  0.00000000E+00  0.00000000E+00  0.00000000E+00
  0.00000000E+00  0.00000000E+00  0.00000000E+00
  0.00000000E+00  0.00000000E+00  0.00000000E+00
  0.00000000E+00  0.00000000E+00  0.00000000E+00
  0.00000000E+00  0.00000000E+00  0.00000000E+00
  0.00000000E+00  0.00000000E+00  0.00000000E+00
  0.00000000E+00  0.00000000E+00  0.00000000E+00
  0.00000000E+00  0.00000000E+00  0.00000000E+00
  0.00000000E+00  0.00000000E+00  0.00000000E+00
  0.00000000E+00  0.00000000E+00  0.00000000E+00
  0.00000000E+00  0.00000000E+00  0.00000000E+00
  0.00000000E+00  0.00000000E+00  0.00000000E+00
  0.00000000E+00  0.00000000E+00  0.00000000E+00
  0.00000000E+00  0.00000000E+00  0.00000000E+00
  0.00000000E+00  0.00000000E+00  0.00000000E+00
  0.00000000E+00  0.00000000E+00  0.00000000E+00
  0.00000000E+00  0.00000000E+00  0.00000000E+00
  0.00000000E+00  0.00000000E+00  0.00000000E+00
  0.00000000E+00  0.00000000E+00  0.00000000E+00
  0.00000000E+00  0.00000000E+00  0.00000000E+00
  0.00000000E+00  0.00000000E+00  0.00000000E+00
  0.00000000E+00  0.00000000E+00  0.00000000E+00
  0.00000000E+00  0.00000000E+00  0.00000000E+00
  0.00000000E+00  0.00000000E+00  0.00000000E+00
  0.00000000E+00  0.00000000E+00  0.00000000E+00
