NMC-811                                 
   1.00000000000000     
     5.6577913463663068    0.0016285567827814    0.0067684308346591
    -2.8310296764522267    4.8943939083568173   -0.0086234855418053
     0.0181360741332054   -0.0146527463964451   14.7591596071469411
   Li   Ni   O    Co   Mn
     1    10    24     1     1
Direct
  0.4989723625167901  0.4978155846384917  0.5026511281128735
  0.0028741220859811  0.0076617981759165  0.9997012062612096
  0.0028994860069251  0.5076552949110789  0.9997446217424969
  0.5029217998285761  0.0076716573411786  0.9997205048142673
  0.5028973309594202  0.5076581406408840  0.9996138964333570
  0.3355878434960459  0.1630719003386205  0.3308771895520608
  0.3356439273592649  0.6633532311722646  0.3308104734632674
  0.8356630572681267  0.6632353722312272  0.3309345080522284
  0.1615731430987874  0.3290643563091433  0.6693231081077283
  0.1619066085217089  0.8293982065321819  0.6655133375131763
  0.6619744769997511  0.3290085470950137  0.6693465928851221
  0.3360756353364830  0.1748034673578337  0.0635358956103511
  0.3362205812028662  0.6747039413142689  0.0635648161053463
  0.8360709557345732  0.1747018705733506  0.0636364529657762
  0.8358776050144915  0.6746624570735155  0.0635437767910833
  0.0021314754884223  0.9966356848040964  0.2673729506595506
  0.0020478253060700  0.4951938135810701  0.2673448529304323
  0.5036746790225254  0.9967008389718691  0.2672717574339507
  0.5026320695216916  0.4959493349716870  0.2664829491921234
  0.1774064450780572  0.3347863727947345  0.3982950821536418
  0.1689293634500703  0.8303016531017292  0.3957310482919392
  0.6642189670228202  0.3344940343192540  0.3983258642710891
  0.6641473592199109  0.8215227415887438  0.3983317413973047
  0.3329972581779765  0.1705177852194894  0.6019423146112689
  0.3328456624198259  0.6589281103315023  0.6026856520128566
  0.8280373104710751  0.1606803713483492  0.6054204861090108
  0.8214779829898199  0.6588039735881009  0.6026855498237212
 -0.0035253792337973  0.9936962648280949  0.7314834946207714
 -0.0032608630061925  0.4998877493216879  0.7320195195884137
  0.4906165272112783  0.9938111290591046  0.7314388850235773
  0.4953885973061008  0.4974165077002719  0.7327337246627555
  0.1695253715546512  0.3405867794874081  0.9359192575246477
  0.1696360160922542  0.8406127578538209  0.9359647615766494
  0.6698112482240248  0.3405988844027827  0.9358937293641575
  0.6697127115042166  0.8407714258871656  0.9358791572406181
  0.6620744984048887  0.8297431838501940  0.6702062412804899
  0.8356097213445358  0.1633190562838616  0.3330302508206746
 
  0.00000000E+00  0.00000000E+00  0.00000000E+00
  0.00000000E+00  0.00000000E+00  0.00000000E+00
  0.00000000E+00  0.00000000E+00  0.00000000E+00
  0.00000000E+00  0.00000000E+00  0.00000000E+00
  0.00000000E+00  0.00000000E+00  0.00000000E+00
  0.00000000E+00  0.00000000E+00  0.00000000E+00
  0.00000000E+00  0.00000000E+00  0.00000000E+00
  0.00000000E+00  0.00000000E+00  0.00000000E+00
  0.00000000E+00  0.00000000E+00  0.00000000E+00
  0.00000000E+00  0.00000000E+00  0.00000000E+00
  0.00000000E+00  0.00000000E+00  0.00000000E+00
  0.00000000E+00  0.00000000E+00  0.00000000E+00
  0.00000000E+00  0.00000000E+00  0.00000000E+00
  0.00000000E+00  0.00000000E+00  0.00000000E+00
  0.00000000E+00  0.00000000E+00  0.00000000E+00
  0.00000000E+00  0.00000000E+00  0.00000000E+00
  0.00000000E+00  0.00000000E+00  0.00000000E+00
  0.00000000E+00  0.00000000E+00  0.00000000E+00
  0.00000000E+00  0.00000000E+00  0.00000000E+00
  0.00000000E+00  0.00000000E+00  0.00000000E+00
  0.00000000E+00  0.00000000E+00  0.00000000E+00
  0.00000000E+00  0.00000000E+00  0.00000000E+00
  0.00000000E+00  0.00000000E+00  0.00000000E+00
  0.00000000E+00  0.00000000E+00  0.00000000E+00
  0.00000000E+00  0.00000000E+00  0.00000000E+00
  0.00000000E+00  0.00000000E+00  0.00000000E+00
  0.00000000E+00  0.00000000E+00  0.00000000E+00
  0.00000000E+00  0.00000000E+00  0.00000000E+00
  0.00000000E+00  0.00000000E+00  0.00000000E+00
  0.00000000E+00  0.00000000E+00  0.00000000E+00
  0.00000000E+00  0.00000000E+00  0.00000000E+00
  0.00000000E+00  0.00000000E+00  0.00000000E+00
  0.00000000E+00  0.00000000E+00  0.00000000E+00
  0.00000000E+00  0.00000000E+00  0.00000000E+00
  0.00000000E+00  0.00000000E+00  0.00000000E+00
  0.00000000E+00  0.00000000E+00  0.00000000E+00
  0.00000000E+00  0.00000000E+00  0.00000000E+00
