NMC-811                                 
   1.00000000000000     
     5.6603394668032365    0.0019661333101704    0.0058591474637904
    -2.8322641562436321    4.8955158307847562   -0.0248418590205971
     0.0138526201353997   -0.0656738268013883   14.8972236303921672
   Li   Ni   O    Co   Mn
     2    10    24     1     1
Direct
  0.5037131803980358  0.5086099957257770  0.4988984227605419
  0.3319641683608994  0.1711500996187447  0.8298506518748264
  0.9985270716965468  0.9974609573289062  0.0007920753887170
  0.9985773092550653  0.4976271574426416  0.9970813646545762
  0.4985664875065206  0.9975167375995703  0.0007571961585379
  0.4986467437931070  0.4977001951015754  0.0008434512656097
  0.3360767508868624  0.1657092711232564  0.3327790250775126
  0.3360520912728299  0.6659647189834301  0.3326542617873698
  0.8363963667493044  0.6659568443820105  0.3327403689652986
  0.1645104423046521  0.3387140200643620  0.6672836872479629
  0.1652068384773206  0.8387121295664495  0.6636373021537365
  0.6655502945333739  0.3387800157939287  0.6673531187036486
  0.3323854957310667  0.1658901425755046  0.0642372048720680
  0.3300730450642173  0.6646064805864054  0.0626849940332486
  0.8339299564911130  0.1687798722792427  0.0625126308946003
  0.8331973274658507  0.6648176171527150  0.0627334315822153
  0.0017051415902464  0.9982567845869025  0.2697994685970355
  0.0016669961062603  0.4963805120403146  0.2697356401171367
  0.5034822409145461  0.9982254320682081  0.2697273036019998
  0.5025151871637565  0.4974978006000231  0.2687832874795638
  0.1786582466709660  0.3387478224301445  0.3997118212479359
  0.1699973605377921  0.8340899895267674  0.3971441395635412
  0.6658132870348962  0.3387719831518723  0.3997344214795160
  0.6658482227241453  0.8257284177261551  0.3997393374659441
  0.3354699698407063  0.1786386582712880  0.6005974084993314
  0.3383339787554536  0.6684416053562471  0.6030357762012110
  0.8294257693718012  0.1668506042243833  0.6052281078878109
  0.8223076825922769  0.6683706763782545  0.6031286452961816
  0.0080087441207606  0.0085909697771628  0.7316383508983098
  0.0007804073584525  0.5109558546301975  0.7301644415950056
  0.4915856018990902  0.0087010208062901  0.7316828483779291
  0.4945969859520267  0.4991528796240731  0.7333712863907060
  0.1695372859021826  0.3243535536562708  0.9345494361678273
  0.1688507025978956  0.8375905662582810  0.9347463505971962
  0.6554881204619769  0.3246876462186291  0.9346230344549362
  0.6646200933773837  0.8290002315001461  0.9371249824274396
  0.6653155711617633  0.8392188104468912  0.6705230501892588
  0.8361160132287534  0.1660940059341397  0.3349029491899203
 
  0.00000000E+00  0.00000000E+00  0.00000000E+00
  0.00000000E+00  0.00000000E+00  0.00000000E+00
  0.00000000E+00  0.00000000E+00  0.00000000E+00
  0.00000000E+00  0.00000000E+00  0.00000000E+00
  0.00000000E+00  0.00000000E+00  0.00000000E+00
  0.00000000E+00  0.00000000E+00  0.00000000E+00
  0.00000000E+00  0.00000000E+00  0.00000000E+00
  0.00000000E+00  0.00000000E+00  0.00000000E+00
  0.00000000E+00  0.00000000E+00  0.00000000E+00
  0.00000000E+00  0.00000000E+00  0.00000000E+00
  0.00000000E+00  0.00000000E+00  0.00000000E+00
  0.00000000E+00  0.00000000E+00  0.00000000E+00
  0.00000000E+00  0.00000000E+00  0.00000000E+00
  0.00000000E+00  0.00000000E+00  0.00000000E+00
  0.00000000E+00  0.00000000E+00  0.00000000E+00
  0.00000000E+00  0.00000000E+00  0.00000000E+00
  0.00000000E+00  0.00000000E+00  0.00000000E+00
  0.00000000E+00  0.00000000E+00  0.00000000E+00
  0.00000000E+00  0.00000000E+00  0.00000000E+00
  0.00000000E+00  0.00000000E+00  0.00000000E+00
  0.00000000E+00  0.00000000E+00  0.00000000E+00
  0.00000000E+00  0.00000000E+00  0.00000000E+00
  0.00000000E+00  0.00000000E+00  0.00000000E+00
  0.00000000E+00  0.00000000E+00  0.00000000E+00
  0.00000000E+00  0.00000000E+00  0.00000000E+00
  0.00000000E+00  0.00000000E+00  0.00000000E+00
  0.00000000E+00  0.00000000E+00  0.00000000E+00
  0.00000000E+00  0.00000000E+00  0.00000000E+00
  0.00000000E+00  0.00000000E+00  0.00000000E+00
  0.00000000E+00  0.00000000E+00  0.00000000E+00
  0.00000000E+00  0.00000000E+00  0.00000000E+00
  0.00000000E+00  0.00000000E+00  0.00000000E+00
  0.00000000E+00  0.00000000E+00  0.00000000E+00
  0.00000000E+00  0.00000000E+00  0.00000000E+00
  0.00000000E+00  0.00000000E+00  0.00000000E+00
  0.00000000E+00  0.00000000E+00  0.00000000E+00
  0.00000000E+00  0.00000000E+00  0.00000000E+00
  0.00000000E+00  0.00000000E+00  0.00000000E+00
