NMC-811                                 
   1.00000000000000     
     5.7466596761623414   -0.0103624597221962   -0.0062019245140073
    -2.8859631480976486    4.9977667218020185   -0.0085678151252040
    -0.0151655093930900   -0.0316856283860851   14.3270991957987448
   Li   Ni   O    Co   Mn
     9    10    24     1     1
Direct
  0.1654156790730027  0.3353013433762779  0.1650884035937445
  0.1705601055757970  0.8342820869612513  0.1683171222751626
  0.6696163038771848  0.3441973709819561  0.1676583298780077
  0.5026940842021779  0.4958449902769601  0.5001877932139969
  0.4974435233249212  0.9910472187400089  0.5017516991613737
  0.9970233853851245  0.9916435516319723  0.5002682530330291
  0.3362676586031629  0.1710718595903327  0.8309286468172747
  0.3349665356658073  0.6681114420482613  0.8323564342004184
  0.8319024586741320  0.1695050237662861  0.8318538948732500
  0.0013040677772183  0.0009098714964749  0.9993223307774587
  0.0030770428267192  0.5049146632590008  0.9964116159796278
  0.5064459276951170  0.0062244803508858  0.0027128688544426
  0.5027209726924416  0.5047487329015324  0.0002737678093138
  0.3326562437358800  0.1660048728416871  0.3334421227478572
  0.3328802767652943  0.6658396078099218  0.3336480564561859
  0.8327720997667714  0.6660390245550035  0.3337507884837014
  0.1618499196577995  0.3292080502382399  0.6638397732127982
  0.1624180128879052  0.8281972167880428  0.6667189992036022
  0.6656267547342043  0.3318758511624377  0.6669058518102872
  0.3343772132452033  0.1727495327161641  0.0688151724801860
  0.3159740039256771  0.6394209940858522  0.0706754729325553
  0.8287673640891569  0.1973510621825054  0.0718805079284090
  0.8723646847582002  0.6836934964175073  0.0702578315028129
  0.0153422784193613  0.0289674775891247  0.2593472194678630
  0.9836479452960651  0.4924615725194820  0.2611767222484061
  0.5029900529613776  0.0157323056258918  0.2614915718304440
  0.5045425482047289  0.4892191067386888  0.2641036125712897
  0.1623086849518935  0.3160298877044267  0.4051146878991914
  0.1618117221836297  0.8434703836080298  0.4030304020944765
  0.6494736744590011  0.3029505013726639  0.4075012503922666
  0.6818642306552152  0.8398636611998226  0.4065907607738688
  0.3347219259455486  0.1667937532954745  0.5959948382743023
  0.3448351967193902  0.6659595947340595  0.5978748928853357
  0.8327546306019968  0.1396491913202162  0.5948340634309404
  0.8093147562794814  0.6603999383793882  0.5988183465984147
  0.9993187004244581  0.0103512022585645  0.7359288467335958
  0.9977027428480126  0.4874788219899139  0.7329083750933858
  0.5132170604253025  0.0058110116758593  0.7409283365648682
  0.4729818648798673  0.4986833475160027  0.7397318760054895
  0.1370693155602874  0.3167531064562907  0.9240469634378953
  0.1979191787192773  0.8307294167491676  0.9270914459508499
  0.6725411755717592  0.3542291627466556  0.9281469555098946
  0.6663751032080149  0.8385397424796140  0.9355760690295565
  0.6636066386480760  0.8284849683353070  0.6701409965385556
  0.8327150876638874  0.1659280378244629  0.3336318820212277
 
  0.00000000E+00  0.00000000E+00  0.00000000E+00
  0.00000000E+00  0.00000000E+00  0.00000000E+00
  0.00000000E+00  0.00000000E+00  0.00000000E+00
  0.00000000E+00  0.00000000E+00  0.00000000E+00
  0.00000000E+00  0.00000000E+00  0.00000000E+00
  0.00000000E+00  0.00000000E+00  0.00000000E+00
  0.00000000E+00  0.00000000E+00  0.00000000E+00
  0.00000000E+00  0.00000000E+00  0.00000000E+00
  0.00000000E+00  0.00000000E+00  0.00000000E+00
  0.00000000E+00  0.00000000E+00  0.00000000E+00
  0.00000000E+00  0.00000000E+00  0.00000000E+00
  0.00000000E+00  0.00000000E+00  0.00000000E+00
  0.00000000E+00  0.00000000E+00  0.00000000E+00
  0.00000000E+00  0.00000000E+00  0.00000000E+00
  0.00000000E+00  0.00000000E+00  0.00000000E+00
  0.00000000E+00  0.00000000E+00  0.00000000E+00
  0.00000000E+00  0.00000000E+00  0.00000000E+00
  0.00000000E+00  0.00000000E+00  0.00000000E+00
  0.00000000E+00  0.00000000E+00  0.00000000E+00
  0.00000000E+00  0.00000000E+00  0.00000000E+00
  0.00000000E+00  0.00000000E+00  0.00000000E+00
  0.00000000E+00  0.00000000E+00  0.00000000E+00
  0.00000000E+00  0.00000000E+00  0.00000000E+00
  0.00000000E+00  0.00000000E+00  0.00000000E+00
  0.00000000E+00  0.00000000E+00  0.00000000E+00
  0.00000000E+00  0.00000000E+00  0.00000000E+00
  0.00000000E+00  0.00000000E+00  0.00000000E+00
  0.00000000E+00  0.00000000E+00  0.00000000E+00
  0.00000000E+00  0.00000000E+00  0.00000000E+00
  0.00000000E+00  0.00000000E+00  0.00000000E+00
  0.00000000E+00  0.00000000E+00  0.00000000E+00
  0.00000000E+00  0.00000000E+00  0.00000000E+00
  0.00000000E+00  0.00000000E+00  0.00000000E+00
  0.00000000E+00  0.00000000E+00  0.00000000E+00
  0.00000000E+00  0.00000000E+00  0.00000000E+00
  0.00000000E+00  0.00000000E+00  0.00000000E+00
  0.00000000E+00  0.00000000E+00  0.00000000E+00
  0.00000000E+00  0.00000000E+00  0.00000000E+00
  0.00000000E+00  0.00000000E+00  0.00000000E+00
  0.00000000E+00  0.00000000E+00  0.00000000E+00
  0.00000000E+00  0.00000000E+00  0.00000000E+00
  0.00000000E+00  0.00000000E+00  0.00000000E+00
  0.00000000E+00  0.00000000E+00  0.00000000E+00
  0.00000000E+00  0.00000000E+00  0.00000000E+00
  0.00000000E+00  0.00000000E+00  0.00000000E+00
