System                                  
   1.0000000000000000     
     9.9607399999999995    0.0001100000000000   -0.0000600000000000
     0.0000400000000000   12.9470899999999993    0.0015800000000000
     0.0000400000000000   -0.0010200000000000    9.4285399999999999
  Li              Mn              P               O             
     1    16    16    64
Direct
     0.7829217834562027    0.3694451174385900    0.8274000185638600
     0.5124439848929205    0.2469266481822250    0.9850592146568128
     0.4790323876504777    0.7528707943663223    0.0266458789086193
     0.0189042514964195    0.2454259185919342    0.9849510676854472
     0.9793549119981698    0.7538367383332818    0.0268696714853968
     0.2424181518934380    0.2422100855790651    0.4777514442036007
     0.2486598423317470    0.7480034372002176    0.5194960304426727
     0.7417670465087585    0.2453891653748759    0.4730669186777341
     0.7474001110184140    0.7486779459725339    0.5192342683780058
     0.0072839174776766    0.0032385264483424    0.9745372057259247
     0.0061238163884894    0.5011962112443822    0.0200597492335140
     0.4950967276004040    1.0008164925894807    0.9880277042999323
     0.5051795361669617    0.5003442832796060    0.0210086232446717
     0.2724387437099304    0.4955528632213346    0.5271735522262979
     0.2347310847700060    0.9984978174536043    0.4876502390624013
     0.7681103326437713    0.5002626215351749    0.5103655051082469
     0.7353946598673093    0.0011773015376201    0.4825748475412785
     0.2369883039512476    0.3794446678062230    0.1791139733364290
     0.2177479016092697    0.8828156114942574    0.1731391858313940
     0.7403342422962937    0.3842465139765279    0.1821090683611034
     0.7181529100144129    0.8811199359254533    0.1726667556459822
     0.0332275163875273    0.3666338191224094    0.6744148758136164
     0.0142193511136171    0.8657894515121020    0.6776987478897487
     0.5338966169257449    0.3730591834953580    0.6639711139181119
     0.5158726074481582    0.8679766080838965    0.6796555815484071
     0.2721719080784689    0.1239012516924725    0.8060336463806783
     0.2717525502067448    0.6097001057632541    0.8456515296009320
     0.7750783311061109    0.1256095627982956    0.8068497146491469
     0.7706407861989164    0.6095882236594061    0.8407421975475009
     0.4699876059488293    0.1181767263104081    0.3136903182252008
     0.4800635124091821    0.6368231889671916    0.3436811708363338
     0.9714985745902689    0.1264530972301814    0.3065915969769467
     0.9831187977225166    0.6391763894979277    0.3430084755898963
     0.0956427941199123    0.2707755074186017    0.6037084872608616
     0.0933617560224684    0.7675027466908456    0.6357325361405212
     0.5973685690000566    0.2750782538321269    0.5957964274044297
     0.5935925979124962    0.7688249711428176    0.6370881390333600
     0.1674854294038686    0.2837340785207867    0.1117900528374898
     0.1432629882624519    0.7847009922849539    0.1195248617654254
     0.6735408220431007    0.2873930811414742    0.1242167633258177
     0.6427333483042699    0.7823224795603468    0.1222223847716160
     0.3449668529971618    0.2213167956419501    0.8519196948851846
     0.3349245388207398    0.7106834562431669    0.9044985338773128
     0.8494593522998128    0.2245362483172996    0.8644919995529735
     0.8407067256008167    0.7067942404717279    0.9010212139974620
     0.3978431904656134    0.2178907351369717    0.3655508549798912
     0.4001309924645324    0.7314722685821176    0.3973418935278730
     0.8997925137980485    0.2247544267073530    0.3629781476893141
     0.8980414178859270    0.7313472914256607    0.3958566861824646
     0.3436791724739028    0.0261251122981788    0.8648118851171258
     0.3545742844022604    0.5159980583239760    0.8985153274560234
     0.8515178718503497    0.0300100471812528    0.8634959126182284
     0.8492787661453062    0.5115407472399475    0.8925262218174285
     0.3966092434799867    0.0239973564823207    0.3790267776702982
     0.4115125732125987    0.5365676288915616    0.3986297453394169
     0.8926384896554860    0.0311086309493858    0.3613217170749869
     0.9215423656880691    0.5371668048139413    0.4000095854482401
     0.3863126123285949    0.3874695734679988    0.1273743521637374
     0.3663193583454956    0.8756157310531644    0.1226137972943835
     0.8891612113767646    0.3932549671701459    0.1247526463828909
     0.8663301070159179    0.8734909345455953    0.1229328523359367
     0.2754398840360955    0.1163688591691725    0.6332535932334981
     0.2853989582427490    0.6145143629127782    0.6780265037365540
     0.7832818198012829    0.1232879553203126    0.6360406447259547
     0.7856476858388797    0.6135831990011570    0.6730609260030254
     0.1237037590619584    0.1221463285626189    0.8642703066784669
     0.1221541228424445    0.6000447732253629    0.8964633454213807
     0.6297753870496734    0.1254945415955531    0.8637183498918046
     0.6222705686623450    0.6030419047287340    0.8937074311526674
     0.1177145587987849    0.1241196491083349    0.3637783846134562
     0.1320415313722409    0.6474190059508809    0.3943893579803546
     0.6180147091811957    0.1216042270449555    0.3690508571599830
     0.6295300078676990    0.6430091000131163    0.3952923227014541
     0.0484010817624397    0.3599456196719000    0.8427897729056916
     0.0231844100726073    0.8725716751208202    0.8474453033546444
     0.5656262729485960    0.3690966842420073    0.8268887983184844
     0.5232568848821835    0.8745970888917460    0.8493979914852785
     0.2251766461074721    0.3711617372983666    0.3484772468021927
     0.2014392484558286    0.8874330155278272    0.3402521130700545
     0.7334561871531358    0.3822558249458087    0.3540474411638830
     0.7020841001884839    0.8864689389677854    0.3406915511414693
     0.1591198370915412    0.4787865018284593    0.1379634721603950
     0.1494410281367648    0.9784232860714706    0.1060451920591198
     0.6610982626700763    0.4823842546585526    0.1375884354649854
     0.6509185342555667    0.9758320825835378    0.1032142730437704
     0.4612421077101618    0.1162770471170276    0.1456621472192507
     0.4659276865506738    0.6333602349844845    0.1752490146722254
     0.9661615933227413    0.1308895672573654    0.1354464757780429
     0.9686339647528994    0.6354409921287227    0.1746413361268609
     0.3833209818052349    0.3786122563116615    0.6223541906375699
     0.3667854012027733    0.8605392304885593    0.6252881642365766
     0.8813682392281631    0.3770950691583647    0.6360443788919274
     0.8649860273091259    0.8586963092768435    0.6249517842062503
     0.1086897763667811    0.4641771542812309    0.6223882973205024
     0.0831649924734063    0.9617426894855963    0.6116575130293340
     0.6059648111994516    0.4697213078700197    0.6028966328564479
     0.5889279021529711    0.9629912931574793    0.6148945649918143

  0.00000000E+00  0.00000000E+00  0.00000000E+00
  0.00000000E+00  0.00000000E+00  0.00000000E+00
  0.00000000E+00  0.00000000E+00  0.00000000E+00
  0.00000000E+00  0.00000000E+00  0.00000000E+00
  0.00000000E+00  0.00000000E+00  0.00000000E+00
  0.00000000E+00  0.00000000E+00  0.00000000E+00
  0.00000000E+00  0.00000000E+00  0.00000000E+00
  0.00000000E+00  0.00000000E+00  0.00000000E+00
  0.00000000E+00  0.00000000E+00  0.00000000E+00
  0.00000000E+00  0.00000000E+00  0.00000000E+00
  0.00000000E+00  0.00000000E+00  0.00000000E+00
  0.00000000E+00  0.00000000E+00  0.00000000E+00
  0.00000000E+00  0.00000000E+00  0.00000000E+00
  0.00000000E+00  0.00000000E+00  0.00000000E+00
  0.00000000E+00  0.00000000E+00  0.00000000E+00
  0.00000000E+00  0.00000000E+00  0.00000000E+00
  0.00000000E+00  0.00000000E+00  0.00000000E+00
  0.00000000E+00  0.00000000E+00  0.00000000E+00
  0.00000000E+00  0.00000000E+00  0.00000000E+00
  0.00000000E+00  0.00000000E+00  0.00000000E+00
  0.00000000E+00  0.00000000E+00  0.00000000E+00
  0.00000000E+00  0.00000000E+00  0.00000000E+00
  0.00000000E+00  0.00000000E+00  0.00000000E+00
  0.00000000E+00  0.00000000E+00  0.00000000E+00
  0.00000000E+00  0.00000000E+00  0.00000000E+00
  0.00000000E+00  0.00000000E+00  0.00000000E+00
  0.00000000E+00  0.00000000E+00  0.00000000E+00
  0.00000000E+00  0.00000000E+00  0.00000000E+00
  0.00000000E+00  0.00000000E+00  0.00000000E+00
  0.00000000E+00  0.00000000E+00  0.00000000E+00
  0.00000000E+00  0.00000000E+00  0.00000000E+00
  0.00000000E+00  0.00000000E+00  0.00000000E+00
  0.00000000E+00  0.00000000E+00  0.00000000E+00
  0.00000000E+00  0.00000000E+00  0.00000000E+00
  0.00000000E+00  0.00000000E+00  0.00000000E+00
  0.00000000E+00  0.00000000E+00  0.00000000E+00
  0.00000000E+00  0.00000000E+00  0.00000000E+00
  0.00000000E+00  0.00000000E+00  0.00000000E+00
  0.00000000E+00  0.00000000E+00  0.00000000E+00
  0.00000000E+00  0.00000000E+00  0.00000000E+00
  0.00000000E+00  0.00000000E+00  0.00000000E+00
  0.00000000E+00  0.00000000E+00  0.00000000E+00
  0.00000000E+00  0.00000000E+00  0.00000000E+00
  0.00000000E+00  0.00000000E+00  0.00000000E+00
  0.00000000E+00  0.00000000E+00  0.00000000E+00
  0.00000000E+00  0.00000000E+00  0.00000000E+00
  0.00000000E+00  0.00000000E+00  0.00000000E+00
  0.00000000E+00  0.00000000E+00  0.00000000E+00
  0.00000000E+00  0.00000000E+00  0.00000000E+00
  0.00000000E+00  0.00000000E+00  0.00000000E+00
  0.00000000E+00  0.00000000E+00  0.00000000E+00
  0.00000000E+00  0.00000000E+00  0.00000000E+00
  0.00000000E+00  0.00000000E+00  0.00000000E+00
  0.00000000E+00  0.00000000E+00  0.00000000E+00
  0.00000000E+00  0.00000000E+00  0.00000000E+00
  0.00000000E+00  0.00000000E+00  0.00000000E+00
  0.00000000E+00  0.00000000E+00  0.00000000E+00
  0.00000000E+00  0.00000000E+00  0.00000000E+00
  0.00000000E+00  0.00000000E+00  0.00000000E+00
  0.00000000E+00  0.00000000E+00  0.00000000E+00
  0.00000000E+00  0.00000000E+00  0.00000000E+00
  0.00000000E+00  0.00000000E+00  0.00000000E+00
  0.00000000E+00  0.00000000E+00  0.00000000E+00
  0.00000000E+00  0.00000000E+00  0.00000000E+00
  0.00000000E+00  0.00000000E+00  0.00000000E+00
  0.00000000E+00  0.00000000E+00  0.00000000E+00
  0.00000000E+00  0.00000000E+00  0.00000000E+00
  0.00000000E+00  0.00000000E+00  0.00000000E+00
  0.00000000E+00  0.00000000E+00  0.00000000E+00
  0.00000000E+00  0.00000000E+00  0.00000000E+00
  0.00000000E+00  0.00000000E+00  0.00000000E+00
  0.00000000E+00  0.00000000E+00  0.00000000E+00
  0.00000000E+00  0.00000000E+00  0.00000000E+00
  0.00000000E+00  0.00000000E+00  0.00000000E+00
  0.00000000E+00  0.00000000E+00  0.00000000E+00
  0.00000000E+00  0.00000000E+00  0.00000000E+00
  0.00000000E+00  0.00000000E+00  0.00000000E+00
  0.00000000E+00  0.00000000E+00  0.00000000E+00
  0.00000000E+00  0.00000000E+00  0.00000000E+00
  0.00000000E+00  0.00000000E+00  0.00000000E+00
  0.00000000E+00  0.00000000E+00  0.00000000E+00
  0.00000000E+00  0.00000000E+00  0.00000000E+00
  0.00000000E+00  0.00000000E+00  0.00000000E+00
  0.00000000E+00  0.00000000E+00  0.00000000E+00
  0.00000000E+00  0.00000000E+00  0.00000000E+00
  0.00000000E+00  0.00000000E+00  0.00000000E+00
  0.00000000E+00  0.00000000E+00  0.00000000E+00
  0.00000000E+00  0.00000000E+00  0.00000000E+00
  0.00000000E+00  0.00000000E+00  0.00000000E+00
  0.00000000E+00  0.00000000E+00  0.00000000E+00
  0.00000000E+00  0.00000000E+00  0.00000000E+00
  0.00000000E+00  0.00000000E+00  0.00000000E+00
  0.00000000E+00  0.00000000E+00  0.00000000E+00
  0.00000000E+00  0.00000000E+00  0.00000000E+00
  0.00000000E+00  0.00000000E+00  0.00000000E+00
  0.00000000E+00  0.00000000E+00  0.00000000E+00
  0.00000000E+00  0.00000000E+00  0.00000000E+00
