System                                  
   1.0000000000000000     
    10.2852317212148616   -0.0002002927936414   -5.4002187051931321
    -2.8351896634306994    9.8867470578824275   -5.4002254834420542
     0.0099513128610022    0.0132069081834311   12.5149077806612770
  Mg              Mn              O             
     1    32    64
Direct
     0.6756718142347098    0.3072283244311146    0.3546666718634231
     0.0076304474319007    0.0065509129993461    0.2646124119523801
     0.0076083355540889    0.0039506199037082    0.7616725131921448
     0.9902947016903593    0.4921507688898415    0.2313083069037278
     0.0246622427584617    0.5258408787844232    0.7927894230522182
     0.5028877184245655   -0.0014469930545144    0.2567271693640653
     0.5055361805819946    0.0008873471681700    0.7557446223427550
     0.4850341803573966    0.4916135613095058    0.2242697120336380
     0.5027567574413443    0.5014653131523946    0.7488292013055710
    -0.0006515994651883    0.2475746753367645    0.9973246455413805
     0.9951940577835752    0.2522671964082011    0.4961603408233851
     0.0136119714930825    0.7659701271557707    0.0280359348525420
     0.9962216326933284    0.7475448888638603    0.4952407577618409
     0.4949096818967058    0.2423964604845746    0.9896042191497665
     0.5025134887682186    0.2529411583404633    0.4993068635351283
     0.5002118669284705    0.7481064348199424    0.9997304442220317
     0.4980832643588727    0.7457259036615896    0.4909828650399155
     0.2575941731976668    0.0066453062211026    0.2648595628596602
     0.2511919348718065    0.0019550756315205    0.7577711618238752
     0.2424626311964452    0.4924791799819649    0.2313985236990122
     0.2453433941570119    0.5016956263720941    0.7470405016482948
     0.7543875803528605    0.9982142713325416    0.2563908061978321
     0.7550775980701232    0.0030526185179548    0.7596657705178729
     0.7385698847281217    0.4906772476807197    0.2225740611538788
     0.7681327550396606    0.5249776785562333    0.7916833811467519
     0.0060337953262583    0.0062624114384733    0.0113658146530827
     0.0049868913699340    0.0064595704694640    0.5133898217646223
     0.0028559616648158    0.5009806524398343    0.0070534296734379
     0.9786632942365524    0.4803412170649373    0.4575329624561565
     0.5005517458865165    0.9982840547235043    1.0002741698252164
     0.5087057488932332    0.0057310316134854    0.5121626874223397
     0.4914616742552967    0.4898997748668889    0.9823243449629456
     0.4817974532817276    0.4832120007404102    0.4652413824761117
     0.3716464596472877    0.3891090022633132    0.2427424186715368
     0.3856674612140875    0.4016731028075647    0.7721104347375984
     0.3966625329231981    0.9074586669206383    0.2915615822197609
     0.3948018949027358    0.9051711753175183    0.7891912882273957
     0.8787446762236911    0.3892037064518504    0.2548869155438108
     0.9013732904789403    0.4194691359902769    0.8017921604586929
     0.8956106983308003    0.9074922687785314    0.2915381786162748
     0.8979150933124371    0.9087721755628807    0.7944335787570502
     0.3808573526474267    0.1153320246114776    0.4784122383272842
     0.3763439638320007    0.1094339378057408    0.9723144149095512
     0.3623782671059077    0.5987943998097871    0.4430252692554238
     0.3700849464582029    0.6037827957441926    0.9621053472654304
     0.8712280662872421    0.1113912297085834    0.4699334168168969
     0.8774583811482597    0.1122361159190186    0.9760493490580260
     0.8578454925991599    0.5926207746900958    0.4374541459382377
     0.8840319969142130    0.6206416285610373    0.9938996788851900
     0.0976034599411019    0.1163858536208340    0.4779268534952987
     0.0996940022969730    0.1132689434357426    0.9776714912770463
     0.0808354199987418    0.5976825119649294    0.4434443871256791
     0.1092432220045085    0.6211955617298279   -0.0048130154516520
     0.5995966075736928    0.1111068549850864    0.4707295214619374
     0.5966012327388206    0.1081789961281097    0.9705185933225872
     0.5809861947708430    0.5944762482890503    0.4366232913080186
     0.5924876481568992    0.6041368661671521    0.9628966298573969
     0.1173834031546895    0.1021015342275713    0.2342235314401378
     0.1135578737303413    0.1007013628930573    0.7274217789373923
     0.1052021157617195    0.5931063471169891    0.2128108348373872
     0.1176647392143304    0.6056878744442470    0.7479198239423968
     0.6155134975863704    0.1023744853003358    0.2305380391764730
     0.6142198858120292    0.0992685825797528    0.7261828421666155
     0.6006683258204277    0.5853256460374295    0.1974611906239676
     0.6316870669805069    0.6067323090738901    0.7522774542982346
     0.1058433386872631    0.3688623759867397    0.2086757479679742
     0.0985450114152057    0.3769983225220355    0.7126863721034947
     0.1185790332279974    0.8807749757441179    0.2371019414358101
     0.1264086293822674    0.8948726292112118    0.7527955784544681
     0.6042691454427397    0.3650921811150265    0.2097558279042171
     0.6154215375540414    0.3768255590400451    0.7155120032794186
     0.6126653465676464    0.8742293069541639    0.2244984471893303
     0.6217715988490524    0.8870979915560683    0.7415223204522180
     0.1216009439373675    0.3868693843984336    0.0216981252405460
     0.1188120260460773    0.3951753122174789    0.5282879452264971
     0.1352872509505718    0.8977194991766088    0.0493591696622210
     0.1311637132828007    0.8966782547603580    0.5438426265161221
     0.6180848105685832    0.3789528711293936    0.0138055674882862
     0.6011745939261104    0.3687221015261569    0.4810542427918262
     0.6296003195770732    0.8917161471092607    0.0375670528204319
     0.6342715526717237    0.8957584772369913    0.5428688736475564
     0.3923051421614136    0.1261919129321243    0.2853439320302489
     0.3930634620951551    0.1270195610986269    0.7840701296852424
     0.3721719032038115    0.6072173527748613    0.2425935152532776
     0.3917516279084887    0.6300019487192187    0.7831749577644150
     0.8928661216690922    0.1255064668636800    0.2838673520588775
     0.8936239476696326    0.1283569573427076    0.7872651820827821
     0.8655561957168046    0.5965963264136458    0.2310993592605593
     0.9082565609714383    0.6478678556676140    0.8166136724248948
     0.3964360727856582    0.3800298303623629    0.0137472376576445
     0.4106224521322187    0.3953408054645547    0.5338006874144040
     0.4088585779213599    0.8920299264470105    0.0379780589866796
     0.4123366213421248    0.8954139598421395    0.5412912055118467
     0.9004794527521993    0.3850508200440481    0.0219295248111311
     0.8772984534051854    0.3672804331052537    0.4746083217376721
     0.9140510512546830    0.8980940364892489    0.0492643656706081
     0.9111966839127718    0.8965594105083778    0.5453782217250387

  0.00000000E+00  0.00000000E+00  0.00000000E+00
  0.00000000E+00  0.00000000E+00  0.00000000E+00
  0.00000000E+00  0.00000000E+00  0.00000000E+00
  0.00000000E+00  0.00000000E+00  0.00000000E+00
  0.00000000E+00  0.00000000E+00  0.00000000E+00
  0.00000000E+00  0.00000000E+00  0.00000000E+00
  0.00000000E+00  0.00000000E+00  0.00000000E+00
  0.00000000E+00  0.00000000E+00  0.00000000E+00
  0.00000000E+00  0.00000000E+00  0.00000000E+00
  0.00000000E+00  0.00000000E+00  0.00000000E+00
  0.00000000E+00  0.00000000E+00  0.00000000E+00
  0.00000000E+00  0.00000000E+00  0.00000000E+00
  0.00000000E+00  0.00000000E+00  0.00000000E+00
  0.00000000E+00  0.00000000E+00  0.00000000E+00
  0.00000000E+00  0.00000000E+00  0.00000000E+00
  0.00000000E+00  0.00000000E+00  0.00000000E+00
  0.00000000E+00  0.00000000E+00  0.00000000E+00
  0.00000000E+00  0.00000000E+00  0.00000000E+00
  0.00000000E+00  0.00000000E+00  0.00000000E+00
  0.00000000E+00  0.00000000E+00  0.00000000E+00
  0.00000000E+00  0.00000000E+00  0.00000000E+00
  0.00000000E+00  0.00000000E+00  0.00000000E+00
  0.00000000E+00  0.00000000E+00  0.00000000E+00
  0.00000000E+00  0.00000000E+00  0.00000000E+00
  0.00000000E+00  0.00000000E+00  0.00000000E+00
  0.00000000E+00  0.00000000E+00  0.00000000E+00
  0.00000000E+00  0.00000000E+00  0.00000000E+00
  0.00000000E+00  0.00000000E+00  0.00000000E+00
  0.00000000E+00  0.00000000E+00  0.00000000E+00
  0.00000000E+00  0.00000000E+00  0.00000000E+00
  0.00000000E+00  0.00000000E+00  0.00000000E+00
  0.00000000E+00  0.00000000E+00  0.00000000E+00
  0.00000000E+00  0.00000000E+00  0.00000000E+00
  0.00000000E+00  0.00000000E+00  0.00000000E+00
  0.00000000E+00  0.00000000E+00  0.00000000E+00
  0.00000000E+00  0.00000000E+00  0.00000000E+00
  0.00000000E+00  0.00000000E+00  0.00000000E+00
  0.00000000E+00  0.00000000E+00  0.00000000E+00
  0.00000000E+00  0.00000000E+00  0.00000000E+00
  0.00000000E+00  0.00000000E+00  0.00000000E+00
  0.00000000E+00  0.00000000E+00  0.00000000E+00
  0.00000000E+00  0.00000000E+00  0.00000000E+00
  0.00000000E+00  0.00000000E+00  0.00000000E+00
  0.00000000E+00  0.00000000E+00  0.00000000E+00
  0.00000000E+00  0.00000000E+00  0.00000000E+00
  0.00000000E+00  0.00000000E+00  0.00000000E+00
  0.00000000E+00  0.00000000E+00  0.00000000E+00
  0.00000000E+00  0.00000000E+00  0.00000000E+00
  0.00000000E+00  0.00000000E+00  0.00000000E+00
  0.00000000E+00  0.00000000E+00  0.00000000E+00
  0.00000000E+00  0.00000000E+00  0.00000000E+00
  0.00000000E+00  0.00000000E+00  0.00000000E+00
  0.00000000E+00  0.00000000E+00  0.00000000E+00
  0.00000000E+00  0.00000000E+00  0.00000000E+00
  0.00000000E+00  0.00000000E+00  0.00000000E+00
  0.00000000E+00  0.00000000E+00  0.00000000E+00
  0.00000000E+00  0.00000000E+00  0.00000000E+00
  0.00000000E+00  0.00000000E+00  0.00000000E+00
  0.00000000E+00  0.00000000E+00  0.00000000E+00
  0.00000000E+00  0.00000000E+00  0.00000000E+00
  0.00000000E+00  0.00000000E+00  0.00000000E+00
  0.00000000E+00  0.00000000E+00  0.00000000E+00
  0.00000000E+00  0.00000000E+00  0.00000000E+00
  0.00000000E+00  0.00000000E+00  0.00000000E+00
  0.00000000E+00  0.00000000E+00  0.00000000E+00
  0.00000000E+00  0.00000000E+00  0.00000000E+00
  0.00000000E+00  0.00000000E+00  0.00000000E+00
  0.00000000E+00  0.00000000E+00  0.00000000E+00
  0.00000000E+00  0.00000000E+00  0.00000000E+00
  0.00000000E+00  0.00000000E+00  0.00000000E+00
  0.00000000E+00  0.00000000E+00  0.00000000E+00
  0.00000000E+00  0.00000000E+00  0.00000000E+00
  0.00000000E+00  0.00000000E+00  0.00000000E+00
  0.00000000E+00  0.00000000E+00  0.00000000E+00
  0.00000000E+00  0.00000000E+00  0.00000000E+00
  0.00000000E+00  0.00000000E+00  0.00000000E+00
  0.00000000E+00  0.00000000E+00  0.00000000E+00
  0.00000000E+00  0.00000000E+00  0.00000000E+00
  0.00000000E+00  0.00000000E+00  0.00000000E+00
  0.00000000E+00  0.00000000E+00  0.00000000E+00
  0.00000000E+00  0.00000000E+00  0.00000000E+00
  0.00000000E+00  0.00000000E+00  0.00000000E+00
  0.00000000E+00  0.00000000E+00  0.00000000E+00
  0.00000000E+00  0.00000000E+00  0.00000000E+00
  0.00000000E+00  0.00000000E+00  0.00000000E+00
  0.00000000E+00  0.00000000E+00  0.00000000E+00
  0.00000000E+00  0.00000000E+00  0.00000000E+00
  0.00000000E+00  0.00000000E+00  0.00000000E+00
  0.00000000E+00  0.00000000E+00  0.00000000E+00
  0.00000000E+00  0.00000000E+00  0.00000000E+00
  0.00000000E+00  0.00000000E+00  0.00000000E+00
  0.00000000E+00  0.00000000E+00  0.00000000E+00
  0.00000000E+00  0.00000000E+00  0.00000000E+00
  0.00000000E+00  0.00000000E+00  0.00000000E+00
  0.00000000E+00  0.00000000E+00  0.00000000E+00
  0.00000000E+00  0.00000000E+00  0.00000000E+00
  0.00000000E+00  0.00000000E+00  0.00000000E+00
