System
1.0
10.285231721214862 -0.0002002927936414 -5.400218705193132
-2.8351896634306994 9.886747057882427 -5.400225483442054
0.0099513128610022 0.0132069081834311 12.514907780661277
Mg Mn O 
1 32 64 
direct
0.6761340018622775 0.3072376990901134 0.3547647199140871 Mg
0.0073493731753737 0.0059758883900283 0.2619580654444892 Mn
0.0071806356623058 0.0065535243552136 0.7647075999308923 Mn
0.9909619609281661 0.4908195446269678 0.2304830960775502 Mn
0.013330676707624 0.514440608945459 0.777748356164195 Mn
0.5051380408081643 1.0007431813350565 0.262092988543909 Mn
0.5076816680582433 0.0015734763270073 0.7572130100155805 Mn
0.4817798876623524 0.4906051567050924 0.2231482255902127 Mn
0.5028181735240823 0.500152850782124 0.7482523349669339 Mn
0.0007917100897066 0.2510127927521426 0.9991809894332792 Mn
0.9963802205173881 0.2517509319212393 0.4946688407157982 Mn
0.0113671100120272 0.7608739911651412 0.025482030727474 Mn
0.9915162672725791 0.7440393981599859 0.4853270417160681 Mn
0.4950991235702158 0.2441256953111501 0.9913939135013493 Mn
0.5038985915585786 0.2554782847369441 0.5017951785230707 Mn
0.5013334885981389 0.7452698151647789 0.9972174131854563 Mn
0.4966615132018687 0.7429543766120141 0.4869436683520565 Mn
0.2597993320823249 0.0070525007131534 0.2671566954607034 Mn
0.2539774636125564 0.0039451440752089 0.7603929802249016 Mn
0.2442786422632699 0.491878259226779 0.2299139051721306 Mn
0.2467850010500597 0.5007863420612736 0.7471675179286403 Mn
0.754576329452421 0.9979759608761632 0.2560032937880483 Mn
0.755025249835615 0.0041856312064842 0.7616486199796741 Mn
0.7382498044878436 0.4902722002140434 0.2222834705921655 Mn
0.7682199981728174 0.525737548337181 0.7940528661220607 Mn
0.003035090766908 0.0069716864946045 0.0108893189700195 Mn
0.0060046832392794 0.0070084368735959 0.5140640322003769 Mn
0.0058394038714196 0.5063424908445712 0.0109227656282496 Mn
0.9779390277651313 0.4794219324337128 0.4551559745633439 Mn
0.5026982474160807 -0.001149504380397 -0.0008254559947613 Mn
0.5100512141184406 0.0055386552642807 0.5155658793156929 Mn
0.4920346248466928 0.48949530851148 0.9838311738594572 Mn
0.4833510040223437 0.4848753960107671 0.4674058249399116 Mn
0.3662608884531028 0.385528565510315 0.2313462982071285 O
0.3832509318906917 0.4011463698202934 0.7702435814635215 O
0.3981210334878851 0.9080571006699248 0.2936988107361748 O
0.39606342948705 0.905437364396186 0.7902065751270057 O
0.8775300921439443 0.3880258729824319 0.254137298296869 O
0.8995410210223025 0.4189695736634436 0.8029041620342177 O
0.8959174573360495 0.9073925693490804 0.2913881745139992 O
0.8980662067262071 0.9093583967559156 0.7959415305795662 O
0.3787902480918435 0.1145362157913527 0.4766642206895794 O
0.3763460535836358 0.1084961648217485 0.9724561743976674 O
0.3619716430344225 0.598090491932649 0.4409810121016907 O
0.3703182701655109 0.6041051587791471 0.961812729266903 O
0.8716527770671403 0.1111875807532717 0.4692793948251096 O
0.8793534400213223 0.114606063113591 0.9787201753472228 O
0.8567997412076025 0.591858283212889 0.4360230787449312 O
0.8831950151188549 0.6235321255866562 -0.0034875540041728 O
0.0978761166725836 0.1164137965969076 0.4775694092009661 O
0.0996513507015573 0.1125959678809117 0.9766432691680526 O
0.0807805005869192 0.5974511673200961 0.4433054490199363 O
0.1112787510115332 0.632824711903307 0.0132333029608835 O
0.6008528343870702 0.110540702026371 0.470457526330991 O
0.5977082835647073 0.110061002676034 0.9737684099059898 O
0.5805354003127094 0.5934371949571353 0.4334666517787976 O
0.5932813402211631 0.6049157792681472 0.9641917802448906 O
0.1179612338043458 0.100434493699033 0.2308600538788646 O
0.1152468962161721 0.1000963435552383 0.7303347474168287 O
0.1050358026709025 0.5935832150822518 0.2158031521922494 O
0.1264096131871745 0.6172618100765125 0.7587714684914914 O
0.6134599330805373 0.1010841526557471 0.2288661301893733 O
0.6145627016792583 0.1010648333387733 0.7272091706006769 O
0.6005588985781206 0.5844644092837403 0.1951037471144412 O
0.632121841987541 0.6072007277479042 0.7564935080307644 O
0.1050999503737541 0.3669289849415611 0.2070720131952896 O
0.0985038855458415 0.3732216605478364 0.7062365227282574 O
0.1195508020541282 0.8831724931606079 0.2372574061886177 O
0.1327396139411411 0.8960035430051912 0.7660038534341991 O
0.6039372319544727 0.3631075038068288 0.2078539658248948 O
0.613217808814225 0.3741840437284206 0.7144388117867274 O
0.6102222152580692 0.8737653727968206 0.2221023295015778 O
0.6292109039077769 0.8979136295739538 0.7563421040243544 O
0.1196111342895735 0.3878946270838837 0.0199584564684301 O
0.1194806315373605 0.396632612518884 0.527778892954085 O
0.132648524175146 0.8911407087680858 0.0358750320135273 O
0.132249289270279 0.896613810849031 0.5467100198929947 O
0.6172914750453364 0.3779868919098746 0.0124476470610693 O
0.6033021430438317 0.3684782246113326 0.4834889483635077 O
0.6282678580943764 0.8908209201171601 0.0358074801241167 O
0.6356014826766304 0.8978304501010432 0.5460717083986449 O
0.3937192512389792 0.1255587248028492 0.2861120482624745 O
0.3902544592098535 0.1259089048047697 0.7834856618749331 O
0.3674634980368803 0.601619003147885 0.2329895380225414 O
0.392586417154322 0.630450925730136 0.7838216580268448 O
0.8914877316849611 0.1247887746646247 0.2822371934908712 O
0.89483746492477 0.1270473855720165 0.785560005855706 O
0.8664248865302316 0.5974384512038893 0.2328283342991808 O
0.9039245365948101 0.6476536744508204 0.8165009361983478 O
0.3957822792072743 0.3780809235878307 0.0097329836304543 O
0.4114174175620385 0.3955275311995575 0.5361237126255607 O
0.3985831117675577 0.8850272852642408 0.0236946535256043 O
0.4142874982066146 0.8971984785378174 0.5446904475986961 O
0.9006925518388776 0.3848946187357259 0.023200444301076 O
0.8786588843958022 0.3692042584187789 0.4767618904984274 O
0.9138366066322386 0.9009175084683047 0.0497084292680292 O
0.913282855336752 0.8961350725422349 0.5467828131351802 O
