System                                  
   1.0000000000000000     
     5.6332914550161464   -0.0000832280145780    8.4595884893342461
     2.5588313597323844    5.0186177351137307    8.4596112556536340
    -0.0001788117109183   -0.0000648134692869   10.1636109311008234
  Rb              Li              Fe              F             
     4     1     2    12
Direct
     0.8748402214688813    0.8748346083543317    0.8748364377648480
     0.1263748549772680    0.1263779906653863    0.1263772714542481
     0.2822444438701778    0.2822418853561832    0.2822432614764653
     0.7119215604224176    0.7119216560184597    0.7119223334092076
     0.4053377958150351    0.4053464717429629    0.4053445114652913
     0.0009032641914260    0.0009038316671458    1.0009041178137899
     0.5024491828958982    0.5024470175136448    0.5024470694096427
     0.3800709858394829    0.8511585885970027    0.3800687263135221
     0.6073607885845490    0.1633947265583545    0.6073629072491410
     0.6073613477792629    0.6073630648309561    0.1633936916322783
     0.1633948956861297    0.6073620685318968    0.6073602427502501
     0.7241570094779610    0.1978654117972666    0.1978659430149254
     0.2680838106353771    0.8113440133627411    0.8113454324773357
     0.1978683809760239    0.7241548837897138    0.1978668920954102
     0.8113403761943747    0.2680903869584834    0.8113393872073933
     0.8511624153791016    0.3800686794038021    0.3800677579320071
     0.8113418168654057    0.8113397121414591    0.2680902161240752
     0.1978675880512694    0.1978671503640417    0.7241548300880668
     0.3800698073104247    0.3800685721806815    0.8511597493597249

  0.00000000E+00  0.00000000E+00  0.00000000E+00
  0.00000000E+00  0.00000000E+00  0.00000000E+00
  0.00000000E+00  0.00000000E+00  0.00000000E+00
  0.00000000E+00  0.00000000E+00  0.00000000E+00
  0.00000000E+00  0.00000000E+00  0.00000000E+00
  0.00000000E+00  0.00000000E+00  0.00000000E+00
  0.00000000E+00  0.00000000E+00  0.00000000E+00
  0.00000000E+00  0.00000000E+00  0.00000000E+00
  0.00000000E+00  0.00000000E+00  0.00000000E+00
  0.00000000E+00  0.00000000E+00  0.00000000E+00
  0.00000000E+00  0.00000000E+00  0.00000000E+00
  0.00000000E+00  0.00000000E+00  0.00000000E+00
  0.00000000E+00  0.00000000E+00  0.00000000E+00
  0.00000000E+00  0.00000000E+00  0.00000000E+00
  0.00000000E+00  0.00000000E+00  0.00000000E+00
  0.00000000E+00  0.00000000E+00  0.00000000E+00
  0.00000000E+00  0.00000000E+00  0.00000000E+00
  0.00000000E+00  0.00000000E+00  0.00000000E+00
  0.00000000E+00  0.00000000E+00  0.00000000E+00
