System
1.0
5.616746881059355 -0.0017184474426853 8.429961048570416
2.5498929176051597 5.00458635520829 8.42996050680215
-0.002804497606049 -0.0017191345599564 10.129761603308777
Rb Li Fe F 
4 1 2 12 
direct
0.8727919494498066 0.8727921404161887 0.8727921017348278 Rb
0.1272079891734652 0.1272078696959103 0.1272079676285492 Rb
0.2845384137804901 0.2845383223915685 0.2845383830957931 Rb
0.7154614931295186 0.7154616289681117 0.715461707507773 Rb
0.404150682752591 0.4041507251654923 0.4041506731461356 Li
4.71161293e-08 3.7114024e-09 -1.82252934e-08 Fe
0.4999999101091393 0.5000000165297176 0.5000000268745503 Fe
0.3902112753285513 0.8441315550876487 0.3902112985406392 F
0.6097887247368606 0.1558684004435953 0.6097887225141262 F
0.6097887173882413 0.6097887289776386 0.1558683426425359 F
0.1558683327188732 0.6097887063895424 0.6097887222563707 F
0.7203434577733693 0.1979580941968181 0.1979580227344616 F
0.2796566419496617 0.8020419539552898 0.8020418795035882 F
0.1979579443758172 0.7203434296304885 0.19795816866184 F
0.8020420630103701 0.2796565519010548 0.8020418717355435 F
0.8441314837364772 0.3902113226366634 0.390211313864616 F
0.8020420459567305 0.8020418177821966 0.2796566731902216 F
0.1979580626969973 0.1979581644669888 0.7203433255148168 F
0.3902113112373821 0.3902112874881851 0.8441315961165091 F
