System                                  
   1.0000000000000000     
     5.3908134835952044   -0.0224579948063885    8.0839488751851825
     2.4403918653152852    4.7647667956404813    8.0777165239269220
    -0.0136267647378888   -0.0233450528688609    9.7125053212106618
  Li              Co              O             
     2     8    16
Direct
     0.2478525003601905    0.2501190520276560    0.7521174105484274
     0.7525516814460503    0.2498285529644611    0.2476469854811501
     0.9968193337767262    0.9914406998279812    0.9960333132897765
     1.0022586549772146    0.0047096759293263    0.5016895080730062
     0.0035472416602940    0.5085698907469266    0.0036931282568194
    -0.0018692110052333    0.4952549007604409    0.4981038931200651
     0.5015428529622867    0.0047369962022444    1.0024011212528043
     0.4949143048488128    0.9968600382920271    0.4940152452665221
     0.4989619907275378    0.4952481135069989    0.9972499971883635
     0.5054480567739874    0.5031276144410701    0.5056395403339287
     0.1259856528419817    0.1472744553759711    0.1258558562838465
     0.1307567195458101    0.1285374279066723    0.6264375420906472
     0.1314357242878481    0.6271450119068521    0.1303248795162396
     0.1402066030995817    0.6266360409523788    0.6373402909168455
     0.6275079337191853    0.1285732685989276    0.1297289616612560
     0.6304106449156801    0.1381596910858383    0.6303096281655332
     0.6374409340302200    0.6266488857549944    0.1401126993418887
     0.6368149784134425    0.6207333515590024    0.6357152597670743
     0.3699354657668574    0.3618029426449303    0.3694135081435720
     0.3729113996296301    0.3715354609303727    0.8698910584378466
     0.3634438279295301    0.8792610448061755    0.3639184157738267
     0.3630247527863396    0.8732835855580333    0.8595518334357470
     0.8695213602194114    0.3715094986095241    0.3733090518262792
     0.8744377244036116    0.3526889210120273    0.8738915892438112
     0.8601784547121142    0.8732762369778763    0.3624262226277762
     0.8689714213679840    0.8729224978406408    0.8693607264818995

  0.00000000E+00  0.00000000E+00  0.00000000E+00
  0.00000000E+00  0.00000000E+00  0.00000000E+00
  0.00000000E+00  0.00000000E+00  0.00000000E+00
  0.00000000E+00  0.00000000E+00  0.00000000E+00
  0.00000000E+00  0.00000000E+00  0.00000000E+00
  0.00000000E+00  0.00000000E+00  0.00000000E+00
  0.00000000E+00  0.00000000E+00  0.00000000E+00
  0.00000000E+00  0.00000000E+00  0.00000000E+00
  0.00000000E+00  0.00000000E+00  0.00000000E+00
  0.00000000E+00  0.00000000E+00  0.00000000E+00
  0.00000000E+00  0.00000000E+00  0.00000000E+00
  0.00000000E+00  0.00000000E+00  0.00000000E+00
  0.00000000E+00  0.00000000E+00  0.00000000E+00
  0.00000000E+00  0.00000000E+00  0.00000000E+00
  0.00000000E+00  0.00000000E+00  0.00000000E+00
  0.00000000E+00  0.00000000E+00  0.00000000E+00
  0.00000000E+00  0.00000000E+00  0.00000000E+00
  0.00000000E+00  0.00000000E+00  0.00000000E+00
  0.00000000E+00  0.00000000E+00  0.00000000E+00
  0.00000000E+00  0.00000000E+00  0.00000000E+00
  0.00000000E+00  0.00000000E+00  0.00000000E+00
  0.00000000E+00  0.00000000E+00  0.00000000E+00
  0.00000000E+00  0.00000000E+00  0.00000000E+00
  0.00000000E+00  0.00000000E+00  0.00000000E+00
  0.00000000E+00  0.00000000E+00  0.00000000E+00
  0.00000000E+00  0.00000000E+00  0.00000000E+00
