System
1.0
5.43821 -0.00527 8.18291
2.46722 4.84634 8.18291
-0.00861 -0.00527 9.82518
Li Co O 
8 8 16 
direct
0.2500004677930317 0.24999896875919286 0.24999996037145755 Li
0.2500004677930317 0.2499989687591929 0.7499999603714576 Li
0.2500004677930316 0.7499989687591928 0.24999996037145747 Li
0.25000046779303176 0.7499989687591928 0.7499999603714577 Li
0.7500004677930318 0.24999896875919286 0.24999996037145747 Li
0.7500004677930316 0.24999896875919284 0.7499999603714578 Li
0.7500004677930316 0.7499989687591928 0.24999996037145747 Li
0.7500004677930319 0.7499989687591927 0.7499999603714577 Li
0.0 0.0 0.0 Co
-1.3789933398091664e-19 -5.586897133188595e-20 0.5 Co
3.6200801286009083e-17 0.49999999999999994 9.68703855708777e-18 Co
6.810107614897483e-17 0.4999999999999999 0.5 Co
0.5 6.177614168989679e-20 6.51981897883456e-17 Co
0.5 -4.830293826626438e-20 0.5000000000000001 Co
0.5 0.4999999999999999 1.303963795766912e-16 Co
0.5000000000000001 0.4999999999999999 0.5000000000000001 Co
0.1300108091399149 0.1300100295789002 0.13001054525904304 O
0.1300108091399149 0.1300100295789002 0.630010545259043 O
0.13001080913991495 0.6300100295789002 0.13001054525904304 O
0.13001080913991497 0.6300100295789001 0.6300105452590429 O
0.6300108091399149 0.13001002957890018 0.13001054525904304 O
0.6300108091399149 0.1300100295789002 0.630010545259043 O
0.6300108091399149 0.6300100295789002 0.13001054525904304 O
0.630010809139915 0.6300100295789001 0.6300105452590431 O
0.36999012644614837 0.36998790793948555 0.36998937548387206 O
0.36999012644614837 0.36998790793948555 0.869989375483872 O
0.36999012644614837 0.8699879079394855 0.36998937548387195 O
0.3699901264461483 0.8699879079394853 0.8699893754838723 O
0.8699901264461484 0.3699879079394855 0.36998937548387195 O
0.8699901264461483 0.3699879079394855 0.8699893754838723 O
0.8699901264461486 0.8699879079394853 0.3699893754838723 O
0.8699901264461484 0.8699879079394854 0.8699893754838719 O
