System                                  
   1.0000000000000000     
     9.9607399999999995    0.0001100000000000   -0.0000600000000000
     0.0000400000000000   12.9470899999999993    0.0015800000000000
     0.0000400000000000   -0.0010200000000000    9.4285399999999999
  Li              Mn              P               O             
    15    16    16    64
Direct
     0.0074536072463239    0.6248784480171203    0.6772776871744149
     0.5259826971336716    0.1246456284974056    0.6701816779939369
     0.5107851728655960    0.6250624107996581    0.6710329784833785
     0.2342976734846982    0.1252885757571768    0.1637891563882522
     0.2380852627255656    0.6249134174199561    0.1693708211958681
     0.7387140217393906    0.1251822382241943    0.1705552473158759
     0.7376538217390037    0.6250912082352054    0.1706513124750586
     0.4876048569447818    0.3741160792248731    0.3330379386609428
     0.4874364498819089    0.8759053967764823    0.3331238533959640
     0.9879532407923147    0.3716401289627687    0.3298584648969313
     0.9877839070737102    0.8779355075702056    0.3295276036636360
     0.2620480172125215    0.3737973183418006    0.8285740036178717
     0.2618650595489380    0.8767798287207178    0.8278520043949870
     0.7634462475707017    0.3745028635055345    0.8286684508410762
     0.7632998621962513    0.8756709062983370    0.8287875308502650
     0.5004348676500106    0.2500728124976672    0.9993620513501085
     0.5006542543182463    0.7506065925807053    0.0010205286984971
     0.0025213403104550    0.2482767515553082    0.9920957632007199
     0.0006504193944600    0.7508276943769555    0.0005862917584003
     0.2482313919755893    0.2476323890219450    0.4999592998102171
     0.2477140562713241    0.7493076303446042    0.5019003247096455
     0.7554204016203392    0.2499539065503334    0.5045396199010939
     0.7502523890460170    0.7492371549792533    0.4999661855415736
     0.0021449984371260    0.0016179077880327    0.9923710998396824
     0.0003791069653126    0.4987590010190804    0.0011001196222477
     0.4997723220073518    0.9998547698155297    0.9997449883645313
     0.5005816643217811    0.4992723452714194    0.0012134704987336
     0.2474966445668633    0.5011762290824687    0.5014848946348089
     0.2467416137208280    0.0030199551276678    0.4986732589466940
     0.7502334386213448    0.5009320489628036    0.4997830548052559
     0.7554020197016721    0.0000510228698467    0.5044663158610009
     0.2400313210235970    0.3751515597964331    0.1800625940704443
     0.2397248347649333    0.8747717980985613    0.1796080559465653
     0.7398045617348405    0.3749223305986286    0.1803026161531414
     0.7396341581371380    0.8751113165187545    0.1801647879579448
     0.0129167975853620    0.3818636384390153    0.6765211936374546
     0.0126004785536084    0.8679003828445873    0.6769685104449844
     0.5107431112662163    0.3773901887300496    0.6790647158181502
     0.5107128011325734    0.8725671702046135    0.6792638977999437
     0.2599883069924448    0.1254080047539888    0.8201489455952714
     0.2614704854106734    0.6249837706197825    0.8227002599515225
     0.7581810694194226    0.1250474666708462    0.8208572865979898
     0.7598500339136880    0.6248541554573176    0.8217272218383591
     0.4871707218442269    0.1247192783611591    0.3212871752951205
     0.4880061239981406    0.6250431778108760    0.3214926836455886
     0.9895880634122745    0.1249230970186292    0.3192847501499214
     0.9892601772722779    0.6251608859833607    0.3193722324841610
     0.0838526129605684    0.2901761061846657    0.6085431161105913
     0.0712127443235347    0.7642210543138011    0.6239898027750487
     0.5758450345599088    0.2792842278066185    0.6177413191076567
     0.5759233434334747    0.7729551925784381    0.6214536515148469
     0.1736074161510273    0.2772184385346660    0.1189573810025483
     0.1750471444782906    0.7749583755901560    0.1222015365019891
     0.6732979343605654    0.2762698907798205    0.1208505435180827
     0.6745831683755759    0.7754005456602235    0.1223010523861851
     0.3281705456565221    0.2248656148389632    0.8766177202880991
     0.3260972337492765    0.7244520931841216    0.8817100861050360
     0.8249011693521582    0.2244411021109105    0.8767690658982089
     0.8254634140453317    0.7239560626797826    0.8807062341437774
     0.4211633518144963    0.2236329590629098    0.3816769953058614
     0.4227631094239396    0.7242126982476752    0.3807092806911522
     0.9243570685030534    0.2240998165251120    0.3778433402445781
     0.9235859473606859    0.7244775629271547    0.3773395519843834
     0.3289550057540049    0.0258212887582471    0.8755317772627341
     0.3262260132882924    0.5255344474680270    0.8816192932646664
     0.8249551154408741    0.0256377534456037    0.8765716716015161
     0.8253987473922431    0.5255844450517632    0.8801694250630751
     0.4219533876604235    0.0257789383737753    0.3818924288426426
     0.4228435019641644    0.5258318908080420    0.3807357106210642
     0.9248126298626316    0.0256608209736609    0.3781354957805726
     0.9236516377506924    0.5258053118674300    0.3773779097299355
     0.3935786406487989    0.3743293966956545    0.1431443745192930
     0.3933461897785414    0.8754087086152654    0.1428125454239756
     0.8927456750692584    0.3744121607752168    0.1412336169961768
     0.8925624133474698    0.8756652391569271    0.1411133264129360
     0.2838590108520815    0.1256146258534852    0.6539823368265459
     0.2905642423898764    0.6250083507292676    0.6572691175312781
     0.7616674064153302    0.1250502754714588    0.6548749051731615
     0.7865393148244230    0.6250236011976029    0.6561406742070581
     0.1114878285583542    0.1250171993518302    0.8709902428111007
     0.1085831444565907    0.6249192052998750    0.8622723104843507
     0.6060247856844047    0.1250181415125726    0.8694510084023166
     0.6067398461554701    0.6249473223330849    0.8601759436341517
     0.1436586617647613    0.1250520101896122    0.3543033417830675
     0.1425441564923882    0.6251395251810192    0.3572088462157873
     0.6401875490709874    0.1250773111252769    0.3567178544392720
     0.6415779326077339    0.6250372172441557    0.3585882262443995
     0.0394306363170388    0.3765481688511838    0.8423389544358312
     0.0384946778744327    0.8727633898915024    0.8430515637748940
     0.5384895816518344    0.3759061363639404    0.8446946529623534
     0.5383563493220558    0.8741531470208999    0.8449935630531109
     0.2136604524829678    0.3742850300424406    0.3461305036658082
     0.2130646285575858    0.8755490977181953    0.3454669824119033
     0.7139586288238311    0.3744411123315626    0.3462275770622235
     0.7137017153482997    0.8757276864874992    0.3460491568971021
     0.1756648475973611    0.4750362286737675    0.1226311391526068
     0.1739263746929021    0.9728493909408895    0.1181176106927930
     0.6747213050416937    0.4745655726825350    0.1222665438089405
     0.6731185178224103    0.9736941489856885    0.1203191106094001
     0.4580814600713231    0.1248374030191440    0.1559199325555848
     0.4616330798371541    0.6250097309034386    0.1558579525206330
     0.9626366468156276    0.1249239876584235    0.1532759332369223
     0.9631648699583072    0.6251645880915732    0.1534750008087057
     0.3573826851725332    0.3776992355161964    0.6418175927556794
     0.3574832528558669    0.8721979965200137    0.6418659640274554
     0.8589378904919240    0.3776625681929563    0.6403119893270702
     0.8586992290309019    0.8721615950149334    0.6403915619741375
     0.0714440118138020    0.4856278323676889    0.6238632316255475
     0.0842929153602018    0.9597406688528921    0.6107663598732945
     0.5758797461259029    0.4769963748070456    0.6211762336117735
     0.5761214557541845    0.9706497518930800    0.6182060538217100

  0.00000000E+00  0.00000000E+00  0.00000000E+00
  0.00000000E+00  0.00000000E+00  0.00000000E+00
  0.00000000E+00  0.00000000E+00  0.00000000E+00
  0.00000000E+00  0.00000000E+00  0.00000000E+00
  0.00000000E+00  0.00000000E+00  0.00000000E+00
  0.00000000E+00  0.00000000E+00  0.00000000E+00
  0.00000000E+00  0.00000000E+00  0.00000000E+00
  0.00000000E+00  0.00000000E+00  0.00000000E+00
  0.00000000E+00  0.00000000E+00  0.00000000E+00
  0.00000000E+00  0.00000000E+00  0.00000000E+00
  0.00000000E+00  0.00000000E+00  0.00000000E+00
  0.00000000E+00  0.00000000E+00  0.00000000E+00
  0.00000000E+00  0.00000000E+00  0.00000000E+00
  0.00000000E+00  0.00000000E+00  0.00000000E+00
  0.00000000E+00  0.00000000E+00  0.00000000E+00
  0.00000000E+00  0.00000000E+00  0.00000000E+00
  0.00000000E+00  0.00000000E+00  0.00000000E+00
  0.00000000E+00  0.00000000E+00  0.00000000E+00
  0.00000000E+00  0.00000000E+00  0.00000000E+00
  0.00000000E+00  0.00000000E+00  0.00000000E+00
  0.00000000E+00  0.00000000E+00  0.00000000E+00
  0.00000000E+00  0.00000000E+00  0.00000000E+00
  0.00000000E+00  0.00000000E+00  0.00000000E+00
  0.00000000E+00  0.00000000E+00  0.00000000E+00
  0.00000000E+00  0.00000000E+00  0.00000000E+00
  0.00000000E+00  0.00000000E+00  0.00000000E+00
  0.00000000E+00  0.00000000E+00  0.00000000E+00
  0.00000000E+00  0.00000000E+00  0.00000000E+00
  0.00000000E+00  0.00000000E+00  0.00000000E+00
  0.00000000E+00  0.00000000E+00  0.00000000E+00
  0.00000000E+00  0.00000000E+00  0.00000000E+00
  0.00000000E+00  0.00000000E+00  0.00000000E+00
  0.00000000E+00  0.00000000E+00  0.00000000E+00
  0.00000000E+00  0.00000000E+00  0.00000000E+00
  0.00000000E+00  0.00000000E+00  0.00000000E+00
  0.00000000E+00  0.00000000E+00  0.00000000E+00
  0.00000000E+00  0.00000000E+00  0.00000000E+00
  0.00000000E+00  0.00000000E+00  0.00000000E+00
  0.00000000E+00  0.00000000E+00  0.00000000E+00
  0.00000000E+00  0.00000000E+00  0.00000000E+00
  0.00000000E+00  0.00000000E+00  0.00000000E+00
  0.00000000E+00  0.00000000E+00  0.00000000E+00
  0.00000000E+00  0.00000000E+00  0.00000000E+00
  0.00000000E+00  0.00000000E+00  0.00000000E+00
  0.00000000E+00  0.00000000E+00  0.00000000E+00
  0.00000000E+00  0.00000000E+00  0.00000000E+00
  0.00000000E+00  0.00000000E+00  0.00000000E+00
  0.00000000E+00  0.00000000E+00  0.00000000E+00
  0.00000000E+00  0.00000000E+00  0.00000000E+00
  0.00000000E+00  0.00000000E+00  0.00000000E+00
  0.00000000E+00  0.00000000E+00  0.00000000E+00
  0.00000000E+00  0.00000000E+00  0.00000000E+00
  0.00000000E+00  0.00000000E+00  0.00000000E+00
  0.00000000E+00  0.00000000E+00  0.00000000E+00
  0.00000000E+00  0.00000000E+00  0.00000000E+00
  0.00000000E+00  0.00000000E+00  0.00000000E+00
  0.00000000E+00  0.00000000E+00  0.00000000E+00
  0.00000000E+00  0.00000000E+00  0.00000000E+00
  0.00000000E+00  0.00000000E+00  0.00000000E+00
  0.00000000E+00  0.00000000E+00  0.00000000E+00
  0.00000000E+00  0.00000000E+00  0.00000000E+00
  0.00000000E+00  0.00000000E+00  0.00000000E+00
  0.00000000E+00  0.00000000E+00  0.00000000E+00
  0.00000000E+00  0.00000000E+00  0.00000000E+00
  0.00000000E+00  0.00000000E+00  0.00000000E+00
  0.00000000E+00  0.00000000E+00  0.00000000E+00
  0.00000000E+00  0.00000000E+00  0.00000000E+00
  0.00000000E+00  0.00000000E+00  0.00000000E+00
  0.00000000E+00  0.00000000E+00  0.00000000E+00
  0.00000000E+00  0.00000000E+00  0.00000000E+00
  0.00000000E+00  0.00000000E+00  0.00000000E+00
  0.00000000E+00  0.00000000E+00  0.00000000E+00
  0.00000000E+00  0.00000000E+00  0.00000000E+00
  0.00000000E+00  0.00000000E+00  0.00000000E+00
  0.00000000E+00  0.00000000E+00  0.00000000E+00
  0.00000000E+00  0.00000000E+00  0.00000000E+00
  0.00000000E+00  0.00000000E+00  0.00000000E+00
  0.00000000E+00  0.00000000E+00  0.00000000E+00
  0.00000000E+00  0.00000000E+00  0.00000000E+00
  0.00000000E+00  0.00000000E+00  0.00000000E+00
  0.00000000E+00  0.00000000E+00  0.00000000E+00
  0.00000000E+00  0.00000000E+00  0.00000000E+00
  0.00000000E+00  0.00000000E+00  0.00000000E+00
  0.00000000E+00  0.00000000E+00  0.00000000E+00
  0.00000000E+00  0.00000000E+00  0.00000000E+00
  0.00000000E+00  0.00000000E+00  0.00000000E+00
  0.00000000E+00  0.00000000E+00  0.00000000E+00
  0.00000000E+00  0.00000000E+00  0.00000000E+00
  0.00000000E+00  0.00000000E+00  0.00000000E+00
  0.00000000E+00  0.00000000E+00  0.00000000E+00
  0.00000000E+00  0.00000000E+00  0.00000000E+00
  0.00000000E+00  0.00000000E+00  0.00000000E+00
  0.00000000E+00  0.00000000E+00  0.00000000E+00
  0.00000000E+00  0.00000000E+00  0.00000000E+00
  0.00000000E+00  0.00000000E+00  0.00000000E+00
  0.00000000E+00  0.00000000E+00  0.00000000E+00
  0.00000000E+00  0.00000000E+00  0.00000000E+00
  0.00000000E+00  0.00000000E+00  0.00000000E+00
  0.00000000E+00  0.00000000E+00  0.00000000E+00
  0.00000000E+00  0.00000000E+00  0.00000000E+00
  0.00000000E+00  0.00000000E+00  0.00000000E+00
  0.00000000E+00  0.00000000E+00  0.00000000E+00
  0.00000000E+00  0.00000000E+00  0.00000000E+00
  0.00000000E+00  0.00000000E+00  0.00000000E+00
  0.00000000E+00  0.00000000E+00  0.00000000E+00
  0.00000000E+00  0.00000000E+00  0.00000000E+00
  0.00000000E+00  0.00000000E+00  0.00000000E+00
  0.00000000E+00  0.00000000E+00  0.00000000E+00
  0.00000000E+00  0.00000000E+00  0.00000000E+00
  0.00000000E+00  0.00000000E+00  0.00000000E+00
  0.00000000E+00  0.00000000E+00  0.00000000E+00
