System                                  
   1.0000000000000000     
     9.8973179505287323   -0.0029271268046785   -0.0007080970859342
     0.0041209076868966   12.6993594647412582   -0.0001603373987241
     0.0006672815599464    0.0001263835220560    9.3698092335868761
  Li              Fe              P               O             
    10    16    16    64
Direct
     0.2395167045935696    0.1260410545812153    0.1716936410322781
     0.7419435680246075    0.1233318322867331    0.1731747024073744
     0.4875467764702644    0.8727156059753902    0.3156322850020087
     0.9856156935437520    0.8717577649896978    0.3183652953448260
     0.0050205106987536    0.6228933068505199    0.6750780915652184
     0.5090758923429529    0.6242413519721759    0.6746525634911459
     0.2694389838347599    0.3737762623652355    0.8424540551141970
     0.2634654770968896    0.8758137987795405    0.8288466414333548
     0.7775459732260772    0.3741967198826194    0.8390844492211926
     0.7661966402587356    0.8748912666195908    0.8287480583820674
     1.0002777317985723    0.0044946414771299    0.9911457932930908
     0.9967813505496593    0.4998032127165272    0.0151619750218911
     0.5011341464719522    0.0041158027222386    0.9916537829576402
     0.4970992735317190    0.4981800660529364    0.0162102152838993
     0.0035707990190664    0.2488232219569781    1.0015929159343122
     0.9961715161897858    0.7474474639113039    0.0048729841050538
     0.5035847575860113    0.2448215000556483    0.9985665101018575
     0.4964961703528790    0.7493179492573212    0.0009060907618191
     0.2505365476846526    0.0012606534907368    0.5014513245842200
     0.2311134024966406    0.5111896469011743    0.4751991840787354
     0.7518948772583576    0.0007579664916731    0.5019260773348677
     0.7352000232017354    0.5055528309501447    0.4847221719110220
     0.2712822565618846    0.2581446339441827    0.5138647257216294
     0.2459861655004631    0.7503966555024446    0.4924680808986596
     0.7666493299745613    0.2608143799871958    0.5100326696017333
     0.7434549227485339    0.7452552522706161    0.4926187726520181
     0.2608003578697779    0.1249009890102925    0.8175144553685105
     0.2632610542159338    0.6239943723324427    0.8214611392645176
     0.7607700385743994    0.1251697883026643    0.8154913559303751
     0.7608880747766650    0.6229784054176825    0.8273186352585898
     0.0251420426472541    0.3757621615200363    0.6718070978987102
     0.0151573984919597    0.8703136530117280    0.6734218967133137
     0.5208844646137417    0.3808095449152930    0.6783238403700657
     0.5142485808648926    0.8708098471400767    0.6720544401010515
     0.4875458575635481    0.1183375918326626    0.3322274988905555
     0.4794214086419157    0.6305212333354439    0.3188996107108970
     0.9879963391926999    0.1191428036869406    0.3330304718575024
     0.9788781202248593    0.6287246475062668    0.3227671054949191
     0.2404802856825194    0.3723853893989160    0.1813846992381297
     0.2329773660099593    0.8848997556367526    0.1748295240390349
     0.7368666207238127    0.3627235456276224    0.1782019984081633
     0.7321391941747357    0.8835745586796487    0.1766105053741707
     0.1124789702489176    0.1272989083263711    0.8702415174203164
     0.1113480721463430    0.6215679996022411    0.8599840193848000
     0.6120498263231092    0.1257611328941576    0.8677045545799653
     0.6071175108249420    0.6177644778865066    0.8719367724663202
     0.0496118768594938    0.3746206524003702    0.8365053531137154
     0.0365000435439143    0.8747763994622848    0.8389761279425558
     0.5408593217775798    0.3800467781873499    0.8461178739224293
     0.5375389482983919    0.8753762596826056    0.8373988697187587
     0.2767748001900571    0.1249541376636348    0.6454005844153492
     0.2903581973118715    0.6186646635616172    0.6529782940571300
     0.7751878380139221    0.1254446483798558    0.6432346488209371
     0.7834320841383813    0.6255705494466618    0.6603407752187166
     0.3664371653536174    0.3672376266335268    0.6389181917012448
     0.3603724462527309    0.8814261836880337    0.6284245739976180
     0.8705098084356794    0.3675290203278329    0.6347420002825134
     0.8617208636486260    0.8799617909930133    0.6293911353451874
     0.1024667251116715    0.2841170366695371    0.6036280079461409
     0.0751321698721912    0.7655144873635559    0.6193838851631671
     0.6037921690357848    0.2896031611400716    0.6160825682928837
     0.5697648749374487    0.7652012989963319    0.6165712614792203
     0.0828731253135042    0.4807301073956757    0.6114241631814006
     0.0947838294116749    0.9628340525529049    0.6079767678891208
     0.5728148856065486    0.4857782525085083    0.6194381479178949
     0.5948118135836056    0.9624936879254088    0.6064877091344903
     0.4194006889853384    0.0162715770771421    0.3902242430557057
     0.4001304621131969    0.5387188030600345    0.3876019051751053
     0.9201210106389901    0.0161576475765371    0.3886630643268187
     0.9080215446709806    0.5338515119019444    0.3869480700767405
     0.1773126165263034    0.2671773214040923    0.1321457552259966
     0.1597910671599576    0.7886111261249715    0.1185837761799334
     0.6704128349072366    0.2590951809116736    0.1270108158636518
     0.6541569609676879    0.7883742317840280    0.1228078548845298
     0.1430216608449977    0.1170744411726223    0.3722197472989868
     0.1317370085423760    0.6252462098824564    0.3817518513214412
     0.6423817893634080    0.1160637136218298    0.3711807765018236
     0.6266838042061887    0.6272109460963049    0.3739029051136986
     0.2354092834832982    0.3737140729493973    0.3541966242488074
     0.2082818398970926    0.8856786767185767    0.3455319704051546
     0.7282830486275479    0.3650897694752009    0.3472517106692254
     0.7091340367332359    0.8846806487464529    0.3470398089249838
     0.4554319931996689    0.1232144000227357    0.1688316679150418
     0.4685331443109808    0.6188185277907157    0.1512607661231208
     0.9591983198725962    0.1251661042782416    0.1687880452512548
     0.9744322347297300    0.6267225226779892    0.1583025798904191
     0.3887830229273371    0.3774652163635416    0.1178688112608984
     0.3855281967240974    0.8832123074415642    0.1331452192939268
     0.8823537614626789    0.3686089760161077    0.1168141218593061
     0.8843049289161605    0.8800436569084171    0.1348140757977402
     0.3338247038011722    0.2245729723393202    0.8723572258078540
     0.3303338883866736    0.7272824956694077    0.8728887056158043
     0.8337592512407653    0.2246229756082760    0.8704564332129284
     0.8247287873757820    0.7258578783547668    0.8850665446266968
     0.1632642382006663    0.4675851776284493    0.1290924973177702
     0.1684965636992886    0.9879136316413555    0.1190186720844644
     0.6555386597656848    0.4574802294060698    0.1194019782845920
     0.6696726526318932    0.9870542939000552    0.1195225250464172
     0.4204479674193980    0.2142998868072987    0.4024736640331736
     0.4130802231081887    0.7359451771166021    0.3629620316503560
     0.9183504748135226    0.2135509026338929    0.4031987851095165
     0.9188250012234583    0.7343162554266160    0.3767089999046793
     0.3293606592500501    0.0227649981541815    0.8698219248093174
     0.3377720764212842    0.5265299896373860    0.8862122738345372
     0.8298248011138721    0.0231076440802596    0.8682085278697181
     0.8336286576660424    0.5231461909897538    0.8819208348995743

  0.00000000E+00  0.00000000E+00  0.00000000E+00
  0.00000000E+00  0.00000000E+00  0.00000000E+00
  0.00000000E+00  0.00000000E+00  0.00000000E+00
  0.00000000E+00  0.00000000E+00  0.00000000E+00
  0.00000000E+00  0.00000000E+00  0.00000000E+00
  0.00000000E+00  0.00000000E+00  0.00000000E+00
  0.00000000E+00  0.00000000E+00  0.00000000E+00
  0.00000000E+00  0.00000000E+00  0.00000000E+00
  0.00000000E+00  0.00000000E+00  0.00000000E+00
  0.00000000E+00  0.00000000E+00  0.00000000E+00
  0.00000000E+00  0.00000000E+00  0.00000000E+00
  0.00000000E+00  0.00000000E+00  0.00000000E+00
  0.00000000E+00  0.00000000E+00  0.00000000E+00
  0.00000000E+00  0.00000000E+00  0.00000000E+00
  0.00000000E+00  0.00000000E+00  0.00000000E+00
  0.00000000E+00  0.00000000E+00  0.00000000E+00
  0.00000000E+00  0.00000000E+00  0.00000000E+00
  0.00000000E+00  0.00000000E+00  0.00000000E+00
  0.00000000E+00  0.00000000E+00  0.00000000E+00
  0.00000000E+00  0.00000000E+00  0.00000000E+00
  0.00000000E+00  0.00000000E+00  0.00000000E+00
  0.00000000E+00  0.00000000E+00  0.00000000E+00
  0.00000000E+00  0.00000000E+00  0.00000000E+00
  0.00000000E+00  0.00000000E+00  0.00000000E+00
  0.00000000E+00  0.00000000E+00  0.00000000E+00
  0.00000000E+00  0.00000000E+00  0.00000000E+00
  0.00000000E+00  0.00000000E+00  0.00000000E+00
  0.00000000E+00  0.00000000E+00  0.00000000E+00
  0.00000000E+00  0.00000000E+00  0.00000000E+00
  0.00000000E+00  0.00000000E+00  0.00000000E+00
  0.00000000E+00  0.00000000E+00  0.00000000E+00
  0.00000000E+00  0.00000000E+00  0.00000000E+00
  0.00000000E+00  0.00000000E+00  0.00000000E+00
  0.00000000E+00  0.00000000E+00  0.00000000E+00
  0.00000000E+00  0.00000000E+00  0.00000000E+00
  0.00000000E+00  0.00000000E+00  0.00000000E+00
  0.00000000E+00  0.00000000E+00  0.00000000E+00
  0.00000000E+00  0.00000000E+00  0.00000000E+00
  0.00000000E+00  0.00000000E+00  0.00000000E+00
  0.00000000E+00  0.00000000E+00  0.00000000E+00
  0.00000000E+00  0.00000000E+00  0.00000000E+00
  0.00000000E+00  0.00000000E+00  0.00000000E+00
  0.00000000E+00  0.00000000E+00  0.00000000E+00
  0.00000000E+00  0.00000000E+00  0.00000000E+00
  0.00000000E+00  0.00000000E+00  0.00000000E+00
  0.00000000E+00  0.00000000E+00  0.00000000E+00
  0.00000000E+00  0.00000000E+00  0.00000000E+00
  0.00000000E+00  0.00000000E+00  0.00000000E+00
  0.00000000E+00  0.00000000E+00  0.00000000E+00
  0.00000000E+00  0.00000000E+00  0.00000000E+00
  0.00000000E+00  0.00000000E+00  0.00000000E+00
  0.00000000E+00  0.00000000E+00  0.00000000E+00
  0.00000000E+00  0.00000000E+00  0.00000000E+00
  0.00000000E+00  0.00000000E+00  0.00000000E+00
  0.00000000E+00  0.00000000E+00  0.00000000E+00
  0.00000000E+00  0.00000000E+00  0.00000000E+00
  0.00000000E+00  0.00000000E+00  0.00000000E+00
  0.00000000E+00  0.00000000E+00  0.00000000E+00
  0.00000000E+00  0.00000000E+00  0.00000000E+00
  0.00000000E+00  0.00000000E+00  0.00000000E+00
  0.00000000E+00  0.00000000E+00  0.00000000E+00
  0.00000000E+00  0.00000000E+00  0.00000000E+00
  0.00000000E+00  0.00000000E+00  0.00000000E+00
  0.00000000E+00  0.00000000E+00  0.00000000E+00
  0.00000000E+00  0.00000000E+00  0.00000000E+00
  0.00000000E+00  0.00000000E+00  0.00000000E+00
  0.00000000E+00  0.00000000E+00  0.00000000E+00
  0.00000000E+00  0.00000000E+00  0.00000000E+00
  0.00000000E+00  0.00000000E+00  0.00000000E+00
  0.00000000E+00  0.00000000E+00  0.00000000E+00
  0.00000000E+00  0.00000000E+00  0.00000000E+00
  0.00000000E+00  0.00000000E+00  0.00000000E+00
  0.00000000E+00  0.00000000E+00  0.00000000E+00
  0.00000000E+00  0.00000000E+00  0.00000000E+00
  0.00000000E+00  0.00000000E+00  0.00000000E+00
  0.00000000E+00  0.00000000E+00  0.00000000E+00
  0.00000000E+00  0.00000000E+00  0.00000000E+00
  0.00000000E+00  0.00000000E+00  0.00000000E+00
  0.00000000E+00  0.00000000E+00  0.00000000E+00
  0.00000000E+00  0.00000000E+00  0.00000000E+00
  0.00000000E+00  0.00000000E+00  0.00000000E+00
  0.00000000E+00  0.00000000E+00  0.00000000E+00
  0.00000000E+00  0.00000000E+00  0.00000000E+00
  0.00000000E+00  0.00000000E+00  0.00000000E+00
  0.00000000E+00  0.00000000E+00  0.00000000E+00
  0.00000000E+00  0.00000000E+00  0.00000000E+00
  0.00000000E+00  0.00000000E+00  0.00000000E+00
  0.00000000E+00  0.00000000E+00  0.00000000E+00
  0.00000000E+00  0.00000000E+00  0.00000000E+00
  0.00000000E+00  0.00000000E+00  0.00000000E+00
  0.00000000E+00  0.00000000E+00  0.00000000E+00
  0.00000000E+00  0.00000000E+00  0.00000000E+00
  0.00000000E+00  0.00000000E+00  0.00000000E+00
  0.00000000E+00  0.00000000E+00  0.00000000E+00
  0.00000000E+00  0.00000000E+00  0.00000000E+00
  0.00000000E+00  0.00000000E+00  0.00000000E+00
  0.00000000E+00  0.00000000E+00  0.00000000E+00
  0.00000000E+00  0.00000000E+00  0.00000000E+00
  0.00000000E+00  0.00000000E+00  0.00000000E+00
  0.00000000E+00  0.00000000E+00  0.00000000E+00
  0.00000000E+00  0.00000000E+00  0.00000000E+00
  0.00000000E+00  0.00000000E+00  0.00000000E+00
  0.00000000E+00  0.00000000E+00  0.00000000E+00
  0.00000000E+00  0.00000000E+00  0.00000000E+00
  0.00000000E+00  0.00000000E+00  0.00000000E+00
  0.00000000E+00  0.00000000E+00  0.00000000E+00
