System
1.0
9.84879 4e-05 -5e-05
-4e-05 12.71643 0.00148
5e-05 -0.00107 9.38874
Li Mn P O 
16 16 16 64 
direct
0.009291434470285255 0.12500611568488346 0.666336261668294 Li
0.009291434470285255 0.6250061156848834 0.666336261668294 Li
0.5092914344702852 0.12500611568488346 0.666336261668294 Li
0.5092914344702851 0.6250061156848835 0.6663362616682938 Li
0.24070884411731228 0.12499962907991069 0.16633674083662967 Li
0.2407088441173123 0.6249996290799107 0.16633674083662967 Li
0.7407088441173123 0.12499962907991069 0.16633674083662967 Li
0.7407088441173122 0.6249996290799107 0.16633674083662967 Li
0.4907072437582137 0.37500055156401746 0.3336597522697642 Li
0.4907072437582137 0.8750005515640175 0.3336597522697642 Li
0.9907072437582136 0.37500055156401746 0.3336597522697642 Li
0.9907072437582136 0.8750005515640173 0.3336597522697642 Li
0.2592919500120169 0.3749950305640682 0.8336598286896305 Li
0.2592919500120169 0.8749950305640682 0.8336598286896305 Li
0.7592919500120168 0.37499503056406824 0.8336598286896305 Li
0.7592919500120169 0.8749950305640681 0.8336598286896304 Li
0.4999895259158592 0.2500086457914924 1.0419482948619912e-05 Mn
0.4999895259158592 0.7500086457914924 1.0419482948619909e-05 Mn
0.9999895259158591 0.25000864579149235 1.0419482948619907e-05 Mn
0.9999895259158592 0.7500086457914924 1.0419482948619936e-05 Mn
0.2499894908314463 0.24998926819378703 0.4999859600049193 Mn
0.2499894908314463 0.7499892681937871 0.4999859600049193 Mn
0.7499894908314463 0.24998926819378706 0.4999859600049193 Mn
0.7499894908314463 0.7499892681937871 0.49998596000491924 Mn
6.307607649787053e-06 8.448910980020507e-06 0.9999891632635698 Mn
6.307607649787053e-06 0.50000844891098 0.9999891632635699 Mn
0.5000063076076497 8.44891098002051e-06 0.9999891632635697 Mn
0.5000063076076497 0.5000084489109801 0.9999891632635698 Mn
0.2500134369410332 0.4999885961940436 0.5000137056789595 Mn
0.2500134369410332 0.9999885961940436 0.5000137056789596 Mn
0.7500134369410332 0.49998859619404357 0.5000137056789596 Mn
0.7500134369410332 0.9999885961940437 0.5000137056789595 Mn
0.23922734821118638 0.3750022803901824 0.1795213308687906 P
0.23922734821118635 0.8750022803901825 0.1795213308687906 P
0.7392273482111863 0.3750022803901824 0.1795213308687906 P
0.7392273482111864 0.8750022803901824 0.1795213308687906 P
0.01077247494133746 0.37500286333888133 0.6795209501537683 P
0.01077247494133746 0.8750028633388812 0.6795209501537685 P
0.5107724749413374 0.3750028633388813 0.6795209501537683 P
0.5107724749413375 0.8750028633388813 0.6795209501537683 P
0.2607683466907279 0.12499882604968494 0.8204793950506925 P
0.2607683466907279 0.6249988260496849 0.8204793950506925 P
0.7607683466907278 0.12499882604968496 0.8204793950506925 P
0.760768346690728 0.6249988260496849 0.8204793950506925 P
0.4892310074454103 0.12499785690167554 0.3204796752849075 P
0.48923100744541026 0.6249978569016756 0.3204796752849075 P
0.9892310074454103 0.12499785690167553 0.3204796752849075 P
0.9892310074454104 0.6249978569016755 0.3204796752849075 P
0.0758591998127708 0.27426537886321006 0.6187709133868646 O
0.07585919981277078 0.77426537886321 0.6187709133868647 O
0.5758591998127708 0.27426537886321006 0.6187709133868646 O
0.5758591998127708 0.7742653788632101 0.6187709133868646 O
0.1741426402624166 0.2742654599952096 0.11876992324657122 O
0.17414264026241663 0.7742654599952097 0.11876992324657122 O
0.6741426402624165 0.2742654599952096 0.11876992324657122 O
0.6741426402624165 0.7742654599952096 0.11876992324657122 O
0.32585247876196954 0.22573570242501403 0.8812321513766844 O
0.32585247876196954 0.725735702425014 0.8812321513766844 O
0.8258524787619695 0.22573570242501403 0.8812321513766843 O
0.8258524787619695 0.7257357024250141 0.8812321513766844 O
0.42414873742657905 0.2257349070334962 0.38123411073453906 O
0.42414873742657905 0.7257349070334962 0.38123411073453906 O
0.924148737426579 0.2257349070334962 0.38123411073453906 O
0.924148737426579 0.7257349070334961 0.38123411073453906 O
0.32584906650324547 0.024260554323046035 0.881231726306567 O
0.3258490665032455 0.5242605543230461 0.881231726306567 O
0.8258490665032453 0.024260554323046035 0.8812317263065669 O
0.8258490665032454 0.524260554323046 0.881231726306567 O
0.4241482725968962 0.024260636995549367 0.38122966050683316 O
0.42414827259689614 0.5242606369955494 0.38122966050683316 O
0.9241482725968961 0.024260636995549364 0.3812296605068332 O
0.9241482725968961 0.5242606369955494 0.38122966050683316 O
0.3945216903820466 0.375001107881817 0.14449938374582802 O
0.3945216903820466 0.8750011078818171 0.144499383745828 O
0.8945216903820465 0.375001107881817 0.14449938374582802 O
0.8945216903820465 0.875001107881817 0.14449938374582802 O
0.29185923004039604 0.12499954525866744 0.6550401645467314 O
0.291859230040396 0.6249995452586674 0.6550401645467315 O
0.791859230040396 0.12499954525866744 0.6550401645467314 O
0.7918592300403959 0.6249995452586674 0.6550401645467314 O
0.10547255968071831 0.12500088219854966 0.8554983761526057 O
0.10547255968071832 0.6250008821985497 0.8554983761526058 O
0.6054725596807183 0.12500088219854966 0.8554983761526056 O
0.6054725596807181 0.6250008821985495 0.8554983761526057 O
0.14452668144575084 0.12499918685933187 0.35549782623890663 O
0.14452668144575084 0.6249991868593319 0.35549782623890663 O
0.6445266814457506 0.12499918685933187 0.35549782623890663 O
0.6445266814457509 0.6249991868593319 0.35549782623890663 O
0.04185802133889291 0.3750012046727477 0.8449619737273698 O
0.04185802133889291 0.8750012046727478 0.8449619737273699 O
0.5418580213388928 0.3750012046727478 0.8449619737273698 O
0.5418580213388929 0.8750012046727479 0.8449619737273698 O
0.2081419801461059 0.3750001989851527 0.34496127562308504 O
0.20814198014610588 0.8750001989851527 0.34496127562308504 O
0.7081419801461059 0.3750001989851527 0.34496127562308504 O
0.7081419801461059 0.8750001989851528 0.34496127562308504 O
0.17414164452560546 0.47574013766262035 0.11877364581511193 O
0.1741416445256055 0.9757401376626204 0.11877364581511193 O
0.6741416445256054 0.47574013766262035 0.11877364581511193 O
0.6741416445256054 0.9757401376626202 0.11877364581511193 O
0.4581402069301752 0.12500014840720652 0.15504116101573712 O
0.45814020693017526 0.6250001484072064 0.15504116101573712 O
0.9581402069301752 0.1250001484072065 0.15504116101573712 O
0.9581402069301752 0.6250001484072065 0.15504116101573712 O
0.35547683537295155 0.3750004739296543 0.644498943224099 O
0.35547683537295155 0.8750004739296542 0.6444989432240991 O
0.8554768353729516 0.37500047392965424 0.644498943224099 O
0.8554768353729515 0.8750004739296543 0.644498943224099 O
0.07585573634394006 0.4757408671835681 0.6187720359329036 O
0.07585573634394005 0.9757408671835681 0.6187720359329038 O
0.5758557363439399 0.4757408671835681 0.6187720359329036 O
0.5758557363439399 0.9757408671835682 0.6187720359329036 O
