System
1.0
9.96074 0.00011 -6e-05
4e-05 12.94709 0.00158
4e-05 -0.00102 9.42854
Li Mn P O 
15 16 16 64 
direct
0.010566636049770999 0.6250038584503418 0.6697046381533132 c
0.5105666568089432 0.12500386292200918 0.6697046504003134 c
0.5105666431777544 0.625003855756274 0.669704645584807 c
0.23943147030374112 0.12499910227369529 0.16971016845225748 c
0.23943147570842266 0.624999098074903 0.16971016487339138 c
0.7394314829125612 0.12499910034916148 0.16971014612749363 c
0.7394314739717752 0.6249991002695128 0.16971019226644107 c
0.4894324513247903 0.37499863205857403 0.33029416901625486 c
0.4894324694011629 0.8749986465810387 0.33029416699554226 c
0.9894324449367264 0.3749986315021372 0.33029415806173357 c
0.989432466261036 0.8749986496457288 0.3302941768393081 c
0.2605669425065644 0.37499780525873116 0.8302948887752293 c
0.2605669390761249 0.8749978155153414 0.8302948894187346 c
0.7605669272900614 0.37499780470706623 0.8302949139519155 c
0.7605669193555148 0.8749978208027874 0.8302949153051435 c
0.4999978609813127 0.25000216075762405 2.110785127999999e-06 a
0.49999787799322204 0.750002170450494 2.10714850830002e-06 a
0.9999978760359668 0.25000216194748237 2.1104345814000055e-06 a
0.9999978783293467 0.7500021758647885 2.1073161940000303e-06 a
0.24999817717469627 0.24999794864987318 0.49999781040305713 a
0.24999817615417116 0.749997957670492 0.4999978157576515 a
0.7499981893001657 0.24999794461365854 0.4999978117623057 a
0.7499981782736396 0.7499979645343535 0.4999978158436264 a
9.240753167000003e-07 2.367042542099988e-06 0.9999980836825082 a
9.237898051999997e-07 0.5000023450420343 0.9999980706695341 a
0.5000009220825132 2.3705674933999837e-06 0.9999980782230853 a
0.500000915442556 0.5000023459841049 0.9999980748087153 a
0.2500026974459825 0.49999677062065084 0.5000036865035086 a
0.25000269531641056 0.9999967928545708 0.5000036868180306 a
0.7500027021669443 0.49999676683595456 0.5000036938372512 a
0.7500027016067429 0.9999967966848778 0.5000036842404302 a
0.24018177577235075 0.3750100546336738 0.17982203326582666 c
0.2401817650557297 0.8750103943481987 0.17982203702755978 c
0.7401818578298794 0.37501005588147324 0.17982203257172213 c
0.7401818594859935 0.8750104003928778 0.17982204009716546 c
0.009817504103415498 0.3749987404358691 0.6798240902202393 c
0.009817505549775498 0.8749990763483699 0.6798240763536411 c
0.5098174536577191 0.37499875996632476 0.6798240688974473 c
0.5098174819256471 0.8749990590855267 0.6798240462060409 c
0.2598168733201107 0.12499281394141767 0.8201776576650872 c
0.25981692723363775 0.6249926615874177 0.8201776924674546 c
0.7598169598226062 0.12499279016137758 0.8201776947727148 c
0.7598169930319436 0.6249926767627517 0.8201777267640835 c
0.4901821880579942 0.1249989005874391 0.32017658651888475 c
0.49018214342640487 0.6249988045880036 0.32017662940637825 c
0.9901822202620176 0.12499889404609289 0.3201765527400998 c
0.9901821787794272 0.6249988163995993 0.320176599323833 c
0.074668022797552 0.2758213253710302 0.6205847315783698 d
0.07466809872103089 0.7758211780370449 0.6205846460501643 d
0.5746680344223551 0.2758213051292558 0.6205847175607941 d
0.5746681027403836 0.7758211795872452 0.6205846579742647 d
0.17533107533774178 0.2758171463409417 0.12058218456088607 d
0.17533099045175493 0.7758169930171274 0.12058210190390077 d
0.6753310603912197 0.27581713475326664 0.12058217192447618 d
0.675330973936743 0.775816971786514 0.12058208920837568 d
0.3246694670355419 0.22418470623377618 0.8794172931734262 d
0.3246694922362046 0.7241847595842953 0.8794173306762425 d
0.8246694428577994 0.22418469708014538 0.8794172871038878 d
0.8246694628851899 0.7241847285120177 0.8794173125789155 d
0.42533205692088266 0.22417925949653839 0.37941549956975007 d
0.4253320468253413 0.7241792867581661 0.37941551419891106 d
0.9253320396835816 0.22417927932769918 0.37941551373972787 d
0.9253320387925114 0.7241792967047735 0.3794155290095561 d
0.324663209555092 0.025821761563840594 0.8794154106459847 d
0.3246631542894878 0.5258218494251266 0.8794153679985698 d
0.8246631719677913 0.025821790725547095 0.8794153895300615 d
0.8246631331354215 0.5258218621010572 0.8794153604353911 d
0.42533136649387 0.025816303031665797 0.3794160788937108 d
0.4253314067334684 0.5258163688906425 0.37941605286915203 d
0.9253313542783522 0.025816288078189396 0.37941609649478486 d
0.9253313906483318 0.5258163522582405 0.37941606664728555 d
0.393709450132679 0.37500287404836197 0.14263195862646216 c
0.39370946835211773 0.8750028477839504 0.14263195420632646 c
0.8937094201018643 0.3750028748223392 0.14263195923742258 c
0.893709428442819 0.8750028447385052 0.14263197013349796 c
0.2872498784817272 0.12499981311326287 0.6545852267094212 c
0.28724987301358584 0.6249998266126519 0.6545852147020987 c
0.7872498677190585 0.1249998147246924 0.6545852110473044 c
0.7872498695409297 0.6249998235297867 0.6545852137819205 c
0.10628933962362178 0.1250044274170951 0.8573670368770989 c
0.1062893142946833 0.6250044333331817 0.8573670256246707 c
0.6062892928172436 0.12500442599603448 0.857367034910845 c
0.6062892802873612 0.6250044362251279 0.8573670452195782 c
0.1437098017719137 0.1249955731647934 0.35736911552023537 c
0.1437098220330266 0.6249955823565774 0.35736912608350546 c
0.6437098219886913 0.124995573410177 0.3573691084624014 c
0.6437098314621366 0.6249955834869106 0.35736912247090447 c
0.037250537089792486 0.3749994832711057 0.8454146678902466 c
0.03725053498505689 0.8749994510627731 0.8454146769827563 c
0.5372505423589495 0.37499947876191525 0.8454146865637444 c
0.5372505365978091 0.874999451102002 0.8454146943304118 c
0.21275013474762094 0.3749991177570443 0.34541511394618285 c
0.21275014406549106 0.8749990909833436 0.34541511400383984 c
0.7127501300669445 0.37499911911057465 0.34541513054941525 c
0.7127501340527781 0.8749990915718978 0.3454151226830175 c
0.17533455162248845 0.47417853499990914 0.12058606096719368 d
0.17533464583716518 0.9741783819134169 0.12058615239555188 d
0.6753345384666297 0.4741785519308795 0.12058605621351347 d
0.675334629336866 0.9741783933341094 0.12058613346307076 d
0.46275065977623847 0.12500107915229766 0.15458563194146396 c
0.4627506786140034 0.6250010879908876 0.15458561256661388 c
0.9627506595681571 0.12500107972048188 0.15458564986376286 c
0.9627506596760784 0.625001088099852 0.15458562553263547 c
0.3562902503819208 0.37500040342013896 0.6426307091330719 c
0.35629024410118554 0.8750003771691686 0.6426307246763645 c
0.8562902169593176 0.3750004031438161 0.6426307177534657 c
0.8562902210104089 0.8750003769944419 0.6426307235170068 c
0.0746670753503711 0.4741835283004485 0.6205837613198213 d
0.074666980876995 0.9741833708664092 0.6205838520657196 d
0.5746670765005994 0.4741835302275076 0.6205837640445089 d
0.5746669903314818 0.9741833885363043 0.6205838446950048 d
