System                                  
   1.0000000000000000     
     0.0003263701322132    4.2608191308847809    7.6821029977599453
     4.5075838583635237   -0.0114656446653637    7.6889397587555450
     4.4942195938991842    4.2595582397556866    0.0010183155464068
  Sr              Ge            
     4     6
Direct
     0.7383998670670773    0.2612406164286817    0.7383557085817873
     0.2616000069241039    0.7387593861296338    0.2616445107910702
     0.2500592370616876    0.2510666794591363    0.2492242424359433
     0.7499414340927616    0.7489326032318947    0.7507749658952230
     0.3226903013362160    0.8414096177392084    0.6766922326908090
     0.8415115744288275    0.3219617034174601    0.1588828274114230
     0.6773095075276775    0.1585906019163070    0.3233080533961575
     0.1584880944797041    0.6780386430001919    0.8411174860735131
     0.1669447642853189    0.1667125651929416    0.8326819131098943
     0.8330552127966240    0.8332875834845451    0.1673180596141777

  0.00000000E+00  0.00000000E+00  0.00000000E+00
  0.00000000E+00  0.00000000E+00  0.00000000E+00
  0.00000000E+00  0.00000000E+00  0.00000000E+00
  0.00000000E+00  0.00000000E+00  0.00000000E+00
  0.00000000E+00  0.00000000E+00  0.00000000E+00
  0.00000000E+00  0.00000000E+00  0.00000000E+00
  0.00000000E+00  0.00000000E+00  0.00000000E+00
  0.00000000E+00  0.00000000E+00  0.00000000E+00
  0.00000000E+00  0.00000000E+00  0.00000000E+00
  0.00000000E+00  0.00000000E+00  0.00000000E+00
