System
1.0
0.0 4.570275673714664 7.513252874950022
4.362406988542071 0.0 7.513252874950022
4.362406988542071 4.570275673714664 0.0
Sr Ge 
4 6 
direct
0.7595047854156876 0.24049521458431267 0.7595047854156877 Sr
0.2404952145843126 0.7595047854156876 0.24049521458431256 Sr
0.25 0.25 0.24999999999999997 Sr
0.7500000000000001 0.7500000000000001 0.7499999999999999 Sr
0.33611541104366893 0.8305072403953676 0.6638845889563308 Ge
0.8305072403953674 0.3361154110436691 0.16949275960463264 Ge
0.663884588956331 0.16949275960463275 0.33611541104366893 Ge
0.16949275960463267 0.6638845889563312 0.8305072403953674 Ge
0.16720737517244344 0.16720737517244344 0.8327926248275566 Ge
0.8327926248275567 0.8327926248275567 0.16720737517244333 Ge
