System                                  
   1.0000000000000000     
     9.9607399999999995    0.0001100000000000   -0.0000600000000000
     0.0000400000000000   12.9470899999999993    0.0015800000000000
     0.0000400000000000   -0.0010200000000000    9.4285399999999999
  Li              Mn              P               O             
     8    16    16    64
Direct
     0.5348008920953254    0.6218645036463921    0.6791488628426068
     0.2308454701664152    0.1217336805136621    0.1798993762583834
     0.7311366952989072    0.1204563018967453    0.1764447777735459
     0.4804365254513353    0.8769802548369259    0.3276055028353062
     0.9983378594478786    0.4068323005086202    0.2960478812419475
     0.9742977111726001    0.8757309968460473    0.3249787752818398
     0.2731208539511721    0.3744407829400805    0.8273706653966224
     0.7699581467799859    0.3784211216203116    0.8195328984806720
     0.5013882696242977    0.2519166318758499    0.0025769042996552
     0.4988855221778690    0.7484330518438120    0.9963685951854397
     0.0004930290282508    0.2499587894075827    0.0037034762527953
     0.0046045666858102    0.7491554228053862    0.9941017962780958
     0.2540019635894622    0.2480977570932472    0.5074922608910630
     0.2479261366478713    0.7506629978828125    0.4984865981067972
     0.7465387692790290    0.2466391322356644    0.5001612214695085
     0.7531077586551537    0.7470219898382041    0.5070983594956158
     0.0011725005144788    0.0015839236014333    0.9844251777133417
     0.0146971355985209    0.5057655520379470    0.9911138367681145
     0.5030819537927256    0.0043810653634061    0.9838452873305494
     0.5033355187884024    0.4994354586148175    0.0139910881065582
     0.2575513337658276    0.5029959030997945    0.4981670443070436
     0.2456514060397556    0.9986614697631032    0.5123627948902578
     0.7538706725169764    0.5052734283810609    0.4907267543754250
     0.7477015001685215    0.9954829048397807    0.5177060652099688
     0.2398217235815210    0.3651453996697588    0.1892378206941885
     0.2296232351974630    0.8829622943145700    0.1703788323156220
     0.7364463259667738    0.3616537253859730    0.1874809666105814
     0.7260879820191534    0.8806219571200788    0.1698413121458097
     0.0287444070832519    0.3786058435072525    0.6683370900673670
     0.0169799304188145    0.8663701356848670    0.6777471521228763
     0.5198370076753844    0.3804688417913238    0.6721702342864293
     0.5061190764219942    0.8635918964641440    0.6798179552254500
     0.2638894459308573    0.1343903950920141    0.8220533923944855
     0.2704274741104379    0.6133836971225225    0.8235602659203808
     0.7610242427868071    0.1369409526772273    0.8191361238893441
     0.7705566833545326    0.6165038665217889    0.8303903432123693
     0.4769769500390401    0.1170011725254143    0.3283121798113046
     0.4816975625397394    0.6342042212412700    0.3231081042363386
     0.9780634782836402    0.1156782607757169    0.3312096848575884
     0.9955098045882098    0.6368436336796348    0.3166935935893359
     0.0931936152057040    0.2802568899876654    0.6041628980938792
     0.0933626369606576    0.7715663169297565    0.6164418018516213
     0.5915797055715837    0.2873164270287824    0.6035208531521985
     0.5760445278822736    0.7645518599226423    0.6271930020319642
     0.1737256631842084    0.2626237968129380    0.1429741092209867
     0.1600125039825808    0.7916021018096703    0.0954549011154089
     0.6688960641735562    0.2613625411215758    0.1333065880444114
     0.6533248029103067    0.7885371143401274    0.0991071461113466
     0.3305815569343210    0.2346160296089073    0.8778605872792334
     0.3498439814099620    0.7066254779574175    0.8822219671821970
     0.8265525273570303    0.2384043627517895    0.8709451941156123
     0.8454843478842688    0.7083613916242077    0.8987443964944283
     0.4032292082649959    0.2111209657955490    0.3934025484755532
     0.4092679637586655    0.7337260164248036    0.3798567645791517
     0.9068466770019578    0.2106064406030437    0.3985437205671996
     0.9185660940545259    0.7322217301614612    0.3717186482915722
     0.3389070049659516    0.0380797277884622    0.8747476653671667
     0.3298421374824111    0.5119076430681160    0.8824064447733385
     0.8366398528890129    0.0413760197801264    0.8699689495666033
     0.8313113259631825    0.5132867667389015    0.8819790907101701
     0.4120733367417473    0.0161409477969603    0.3847307203146190
     0.4044809344871699    0.5376932670105320    0.3771122717280169
     0.9139883680861925    0.0148082924011939    0.3863966021138779
     0.9272587796360718    0.5352136693935745    0.3628030512107540
     0.3839885067628924    0.3724902881748492    0.1303532981431603
     0.3831693568426330    0.8777921240642201    0.1380161007431230
     0.8871949232568247    0.3622310409855478    0.1393871339641329
     0.8786721296149801    0.8774622798564703    0.1349957623570611
     0.2751927893593256    0.1335407299314766    0.6529543664669111
     0.2992523701464692    0.6152591142212555    0.6549087908494167
     0.7651781261589706    0.1355642217970754    0.6498526774058411
     0.7796549117389701    0.6232159213075866    0.6646663260739587
     0.1170681564112787    0.1314337515179188    0.8789557194244922
     0.1214124555359167    0.6232005883399870    0.8660141603910334
     0.6134309040832427    0.1322447253192035    0.8810663460891693
     0.6180325606666282    0.6221297379573493    0.8759382560613358
     0.1306604987204182    0.1188586651469373    0.3699310823924049
     0.1434888600609085    0.6381655492685940    0.3793855712171098
     0.6290605323987141    0.1202032745486472    0.3656212098640053
     0.6271963345545958    0.6323158389656512    0.3806760331216918
     0.0589427974331981    0.3781887676939922    0.8323413846115818
     0.0221816422268833    0.8620639704649777    0.8455083677104032
     0.5468034648526243    0.3744548653540465    0.8370602828625314
     0.5116410339000464    0.8654535799258747    0.8486044413893755
     0.2264387853991379    0.3697163931277225    0.3631005046374097
     0.1973611752768249    0.8750198639609433    0.3355715730290433
     0.7317916686044450    0.3629828288781845    0.3579265437848840
     0.6961705899133508    0.8753886827902289    0.3343175537197141
     0.1485897673751220    0.4553952241854100    0.1462872286871284
     0.1686094170816363    0.9855514460791422    0.1173802789633232
     0.6637175851628240    0.4575211238380129    0.1356704892465385
     0.6640471184047099    0.9830482880216819    0.1121833839105466
     0.4500119031299886    0.1218960486415680    0.1627447444206980
     0.4726971252858735    0.6351847562639250    0.1559444259724435
     0.9511265554487938    0.1219868960110423    0.1662164133110866
     0.9914565834560048    0.6381396412991844    0.1481679279181004
     0.3658071327457425    0.3747436454938487    0.6349611657542316
     0.3576889830223314    0.8632050226784838    0.6159510576201410
     0.8769658733203293    0.3808993251951794    0.6324800774094023
     0.8697220405772782    0.8648389440501049    0.6191054881867311
     0.0980344116003216    0.4747411587310303    0.6010996297472346
     0.0846652799260460    0.9674327915697858    0.6312358226470048
     0.5788767189983109    0.4823199104350488    0.6172015859258770
     0.5784873627817223    0.9604369317730184    0.6284694844383532

  0.00000000E+00  0.00000000E+00  0.00000000E+00
  0.00000000E+00  0.00000000E+00  0.00000000E+00
  0.00000000E+00  0.00000000E+00  0.00000000E+00
  0.00000000E+00  0.00000000E+00  0.00000000E+00
  0.00000000E+00  0.00000000E+00  0.00000000E+00
  0.00000000E+00  0.00000000E+00  0.00000000E+00
  0.00000000E+00  0.00000000E+00  0.00000000E+00
  0.00000000E+00  0.00000000E+00  0.00000000E+00
  0.00000000E+00  0.00000000E+00  0.00000000E+00
  0.00000000E+00  0.00000000E+00  0.00000000E+00
  0.00000000E+00  0.00000000E+00  0.00000000E+00
  0.00000000E+00  0.00000000E+00  0.00000000E+00
  0.00000000E+00  0.00000000E+00  0.00000000E+00
  0.00000000E+00  0.00000000E+00  0.00000000E+00
  0.00000000E+00  0.00000000E+00  0.00000000E+00
  0.00000000E+00  0.00000000E+00  0.00000000E+00
  0.00000000E+00  0.00000000E+00  0.00000000E+00
  0.00000000E+00  0.00000000E+00  0.00000000E+00
  0.00000000E+00  0.00000000E+00  0.00000000E+00
  0.00000000E+00  0.00000000E+00  0.00000000E+00
  0.00000000E+00  0.00000000E+00  0.00000000E+00
  0.00000000E+00  0.00000000E+00  0.00000000E+00
  0.00000000E+00  0.00000000E+00  0.00000000E+00
  0.00000000E+00  0.00000000E+00  0.00000000E+00
  0.00000000E+00  0.00000000E+00  0.00000000E+00
  0.00000000E+00  0.00000000E+00  0.00000000E+00
  0.00000000E+00  0.00000000E+00  0.00000000E+00
  0.00000000E+00  0.00000000E+00  0.00000000E+00
  0.00000000E+00  0.00000000E+00  0.00000000E+00
  0.00000000E+00  0.00000000E+00  0.00000000E+00
  0.00000000E+00  0.00000000E+00  0.00000000E+00
  0.00000000E+00  0.00000000E+00  0.00000000E+00
  0.00000000E+00  0.00000000E+00  0.00000000E+00
  0.00000000E+00  0.00000000E+00  0.00000000E+00
  0.00000000E+00  0.00000000E+00  0.00000000E+00
  0.00000000E+00  0.00000000E+00  0.00000000E+00
  0.00000000E+00  0.00000000E+00  0.00000000E+00
  0.00000000E+00  0.00000000E+00  0.00000000E+00
  0.00000000E+00  0.00000000E+00  0.00000000E+00
  0.00000000E+00  0.00000000E+00  0.00000000E+00
  0.00000000E+00  0.00000000E+00  0.00000000E+00
  0.00000000E+00  0.00000000E+00  0.00000000E+00
  0.00000000E+00  0.00000000E+00  0.00000000E+00
  0.00000000E+00  0.00000000E+00  0.00000000E+00
  0.00000000E+00  0.00000000E+00  0.00000000E+00
  0.00000000E+00  0.00000000E+00  0.00000000E+00
  0.00000000E+00  0.00000000E+00  0.00000000E+00
  0.00000000E+00  0.00000000E+00  0.00000000E+00
  0.00000000E+00  0.00000000E+00  0.00000000E+00
  0.00000000E+00  0.00000000E+00  0.00000000E+00
  0.00000000E+00  0.00000000E+00  0.00000000E+00
  0.00000000E+00  0.00000000E+00  0.00000000E+00
  0.00000000E+00  0.00000000E+00  0.00000000E+00
  0.00000000E+00  0.00000000E+00  0.00000000E+00
  0.00000000E+00  0.00000000E+00  0.00000000E+00
  0.00000000E+00  0.00000000E+00  0.00000000E+00
  0.00000000E+00  0.00000000E+00  0.00000000E+00
  0.00000000E+00  0.00000000E+00  0.00000000E+00
  0.00000000E+00  0.00000000E+00  0.00000000E+00
  0.00000000E+00  0.00000000E+00  0.00000000E+00
  0.00000000E+00  0.00000000E+00  0.00000000E+00
  0.00000000E+00  0.00000000E+00  0.00000000E+00
  0.00000000E+00  0.00000000E+00  0.00000000E+00
  0.00000000E+00  0.00000000E+00  0.00000000E+00
  0.00000000E+00  0.00000000E+00  0.00000000E+00
  0.00000000E+00  0.00000000E+00  0.00000000E+00
  0.00000000E+00  0.00000000E+00  0.00000000E+00
  0.00000000E+00  0.00000000E+00  0.00000000E+00
  0.00000000E+00  0.00000000E+00  0.00000000E+00
  0.00000000E+00  0.00000000E+00  0.00000000E+00
  0.00000000E+00  0.00000000E+00  0.00000000E+00
  0.00000000E+00  0.00000000E+00  0.00000000E+00
  0.00000000E+00  0.00000000E+00  0.00000000E+00
  0.00000000E+00  0.00000000E+00  0.00000000E+00
  0.00000000E+00  0.00000000E+00  0.00000000E+00
  0.00000000E+00  0.00000000E+00  0.00000000E+00
  0.00000000E+00  0.00000000E+00  0.00000000E+00
  0.00000000E+00  0.00000000E+00  0.00000000E+00
  0.00000000E+00  0.00000000E+00  0.00000000E+00
  0.00000000E+00  0.00000000E+00  0.00000000E+00
  0.00000000E+00  0.00000000E+00  0.00000000E+00
  0.00000000E+00  0.00000000E+00  0.00000000E+00
  0.00000000E+00  0.00000000E+00  0.00000000E+00
  0.00000000E+00  0.00000000E+00  0.00000000E+00
  0.00000000E+00  0.00000000E+00  0.00000000E+00
  0.00000000E+00  0.00000000E+00  0.00000000E+00
  0.00000000E+00  0.00000000E+00  0.00000000E+00
  0.00000000E+00  0.00000000E+00  0.00000000E+00
  0.00000000E+00  0.00000000E+00  0.00000000E+00
  0.00000000E+00  0.00000000E+00  0.00000000E+00
  0.00000000E+00  0.00000000E+00  0.00000000E+00
  0.00000000E+00  0.00000000E+00  0.00000000E+00
  0.00000000E+00  0.00000000E+00  0.00000000E+00
  0.00000000E+00  0.00000000E+00  0.00000000E+00
  0.00000000E+00  0.00000000E+00  0.00000000E+00
  0.00000000E+00  0.00000000E+00  0.00000000E+00
  0.00000000E+00  0.00000000E+00  0.00000000E+00
  0.00000000E+00  0.00000000E+00  0.00000000E+00
  0.00000000E+00  0.00000000E+00  0.00000000E+00
  0.00000000E+00  0.00000000E+00  0.00000000E+00
  0.00000000E+00  0.00000000E+00  0.00000000E+00
  0.00000000E+00  0.00000000E+00  0.00000000E+00
  0.00000000E+00  0.00000000E+00  0.00000000E+00
  0.00000000E+00  0.00000000E+00  0.00000000E+00
