System
1.0
11.34143766954807 -0.0647836135991604 -0.2488026780888
-5.633701072879502 9.928851391039936 0.0710431474792025
0.0222419509143507 0.0786910209071783 9.203692477086669
Mn Co Ni O 
12 8 12 64 
direct
0.0836939855438104 0.4180517775908638 0.2113635147312766 Mn
0.0816145644637728 0.9152928830269836 0.2123470532961184 Mn
0.5815796938481267 0.4156518644656728 0.2115011580790294 Mn
0.5810357613216935 0.9156605808794898 0.210786452748713 Mn
0.0840277037415315 0.1674219715874623 0.2094712458194644 Mn
0.0828261258802075 0.6672908908200782 0.2144113641712408 Mn
0.5819072501842033 0.1673672842092853 0.2113040937451525 Mn
0.5826443480309723 0.667732607795716 0.2107832984834767 Mn
0.1647953181650674 0.0785356961645324 0.7069168093764628 Mn
0.1700872704727394 0.5840611332271528 0.7096909507993068 Mn
0.6688881319562346 0.0835736665445587 0.7120200838030352 Mn
0.6649496772382736 0.5788489841348523 0.7055094936801112 Mn
0.1709333876592113 0.3306499687732004 0.4836614444573606 Co
0.1663322024859039 0.8320754721559991 0.4860454165689163 Co
0.6667673763049073 0.3325649589624871 0.4863177081944137 Co
0.6689157729700542 0.8294153392594932 0.4825491729044355 Co
0.3341607410141078 0.1655417755732478 0.9851576046655713 Co
0.3357761401155288 0.6689247623494653 0.9848678566381384 Co
0.8352108771601544 0.1703091788485589 0.9853229567855827 Co
0.8324126869593541 0.6644098085359696 0.9859579267286743 Co
0.4155468112644475 0.0836924012545895 0.7089519717872578 Ni
0.4192374364218646 0.5865710690153649 0.7106405818764298 Ni
0.9202181148102045 0.0866603332173999 0.7136031984036274 Ni
0.9153688045239345 0.5836211127235984 0.7084965694953628 Ni
0.3301779918413874 0.4149636437791403 0.2121506561356114 Ni
0.3296189540961886 0.9147036230537497 0.2152442768325332 Ni
0.8299474927823756 0.4154503340778536 0.2146333303006309 Ni
0.8301250486098526 0.9148609227257531 0.2114046232664161 Ni
0.4128453186191725 0.3275059628126545 0.7068713114822287 Ni
0.418190266090396 0.8337427712643316 0.7137308514808602 Ni
0.9186572414038531 0.3345749611291945 0.7140987352657778 Ni
0.9124504988715665 0.8275656828694374 0.7076097482414709 Ni
0.1669097317437079 0.0836189145548853 0.1021757483401063 O
0.1672091110061215 0.5851703301700344 0.1067428604589538 O
0.6680856831666949 0.085819808275209 0.1065313356238227 O
0.6666690690374297 0.5838361164743252 0.1021313600011529 O
0.4169784579775113 0.3358546124307762 0.0960515578567247 O
0.4163820084518015 0.8376339768286489 0.0993364040121138 O
0.9157943859612298 0.3365673258042167 0.1019523101327237 O
0.9161518874045839 0.8352493567983966 0.096648356515032 O
0.3323442955284977 0.1644890769722964 0.6059291682024225 O
0.338453181569263 0.6721296731130045 0.6115887887877958 O
0.8380115292820847 0.1714343293183008 0.6116341242003387 O
0.8329034149663955 0.6652890325188247 0.6055214746628003 O
0.263069944953488 0.0195761841822853 0.8376666952237721 O
0.2638142715284015 0.5258823922514309 0.8425552397364572 O
0.7642499808504644 0.0262630318601508 0.8439861628125646 O
0.7622411781370899 0.5194998520451802 0.8366234156575747 O
0.2608868751282676 0.2355930652585491 0.8363305120614584 O
0.2643388598572244 0.7418160371927284 0.839015014527491 O
0.7633477394086533 0.2421214168015657 0.8393408281307043 O
0.7599933629235792 0.7353683385762304 0.8357857632840215 O
0.3219880315552698 0.4067843482636811 0.5953533945867931 O
0.3351799129472788 0.9180308265084525 0.593241736663996 O
0.8347706335281909 0.4180234671901354 0.5920943951753099 O
0.8221021121143887 0.9066916461200555 0.5952290512097833 O
0.2411238310806374 0.2601350370681709 0.340901443228302 O
0.2399934498566346 0.7613557574872097 0.3454591134507282 O
0.7403386940028354 0.2603486547298798 0.3432734670769555 O
0.7400032008101229 0.7594229132494308 0.3412975022807075 O
0.0219128488446757 0.2599839061180081 0.3400776579939732 O
0.0208639554227424 0.7603192301832228 0.3424257363609524 O
0.5217817448835703 0.2607819915634661 0.3414896952672138 O
0.5227781983662888 0.761064002111659 0.3402924037977213 O
0.083875680913317 0.1641677847094986 0.5968617422302338 O
0.0873714958216117 0.6722146065015963 0.5991817221336507 O
0.5870599686248049 0.1716602440233673 0.5988482019022067 O
0.5852888375695419 0.6659819617449313 0.59594499247129 O
0.9975776318156684 0.9936094702764743 0.8080373717801469 O
0.9999512582500015 0.5007387264398222 0.8093245539901213 O
0.5003776532566221 0.0012308076327527 0.8100372523786012 O
0.4976776398221288 0.4942406473315381 0.8057370950332561 O
0.9977632890499039 0.9988529612781156 0.3124496572416048 O
0.997916266287481 0.4981138787497302 0.3155207250570491 O
0.4983796743595636 0.9990434369680001 0.3143283988248795 O
0.4978991668819079 0.4986631312552809 0.3128065212333987 O
0.1663767942874499 0.334692616146809 0.1072993485310934 O
0.1656450513241237 0.8332213139432002 0.1096544188177719 O
0.6664134633315294 0.334440637946822 0.1081694833055118 O
0.6656670224055311 0.8341707981311471 0.1071611627906177 O
0.4774954999015036 0.2379541630920274 0.8390053856990907 O
0.4821842267607301 0.7513825303789712 0.8521287490171565 O
0.9814811255468152 0.2517434521946077 0.8538121828600422 O
0.9765422664895973 0.7372196035297857 0.8397290822249144 O
0.0862025878321785 0.4177145987023905 0.6009255545928749 O
0.0815283307022923 0.9141808705489273 0.5972253231824821 O
0.5815766208756278 0.4147293643573493 0.5949808404305073 O
0.5870336006078898 0.9178188218729249 0.6021464313281537 O
0.2404724672857704 0.475835999565324 0.3431353994515938 O
0.2372375048713974 0.9751625184179934 0.3447251119068721 O
0.7378006740647746 0.475555901797973 0.3437997207832845 O
0.7400243753938812 0.9778321290004623 0.3428163326348274 O
0.4145936966948325 0.0863537399556773 0.1021135423177137 O
0.4153235804903742 0.5867601913181411 0.1007962162693704 O
0.9160597734825435 0.0870386986916895 0.1012114601622591 O
0.9144761180766715 0.58431017494874 0.1028458925088707 O
