System
1.0
10.362654199567075 0.6680397148495248 5.890074447848777
3.510047580411978 10.073208645045039 5.577995800114263
-0.2770176937874708 0.4281704396772118 11.509736570530237
Li Mn O 
13 32 64 
direct
0.06955248993001 0.0688460785089962 0.0555953936848947 Li
0.0708396056669872 0.565502426303768 0.0599994717769434 Li
0.0739987673938756 0.5643292920590914 0.553805540917942 Li
0.5665607867742382 0.0693352601481098 0.05948679904422 Li
0.5638572306714984 0.0755335049840166 0.552272293361844 Li
0.5693398002704172 0.568746840862827 0.0574025587742082 Li
0.5654745792301854 0.5662671782247628 0.5569394030701235 Li
0.4306401392924436 0.4295944532746704 0.9456821079813402 Li
0.4229365853185676 0.9343260287495205 0.4471646112969351 Li
0.4289862479278556 0.9347573566464022 0.942966003287648 Li
0.9338641141826208 0.4244097361263841 0.4459654106357011 Li
0.9352440497912838 0.4283530777426999 0.9425140894863587 Li
0.9348137664053638 0.9341844937677639 0.9420491701291978 Li
0.2498470611867115 0.2486962357573486 0.0014388800436562 Mn
0.2497831857528398 0.2494443391380224 0.5002362727424587 Mn
0.2508008717122283 0.7492127628053862 0.0014449768507192 Mn
0.2473195672811367 0.7494877691927977 0.5003755385531621 Mn
0.7499065666876175 0.2506476058582959 5.71961373925e-05 Mn
0.7481693039678606 0.2482885667480881 0.4986482715220693 Mn
0.7557011489936469 0.7539021709679747 0.9979343431782961 Mn
0.7495142842539898 0.7511452967391274 0.498141213612562 Mn
0.2480085420660882 0.0013620686307481 0.2529046014482436 Mn
0.2476647026577427 0.0004896857920413 0.7494858464583243 Mn
0.2521039420449276 0.4984092699080402 0.2520345321552936 Mn
0.2499262322846782 0.4961794846620441 0.7510279153490885 Mn
0.7499436105424446 0.0017631584560954 0.2489441884731554 Mn
0.7504613169892125 0.0033619270746063 0.7474607492272238 Mn
0.7502274322185541 0.4993285798221272 0.2494151292895017 Mn
0.7505444874303694 0.4998543499423493 0.7491666494439865 Mn
0.0013668080194994 0.2497371761232737 0.2510519268322391 Mn
0.0008893474468205 0.2472879361249889 0.7489343665019123 Mn
0.0011691184748337 0.7501909830178666 0.249736857976343 Mn
0.003358631106856 0.750270939909695 0.7484722397576993 Mn
0.4988046106866778 0.2523329960204139 0.250938436294416 Mn
0.4966128454822591 0.2495339851768089 0.7497946714733924 Mn
0.4987864599932407 0.7499892857830814 0.2504081489031196 Mn
0.4994370000137971 0.7507031185645205 0.7500922766764336 Mn
0.2501239501580084 0.2495988518258471 0.2506899284605969 Mn
0.2490023924422851 0.2489777663974778 0.7507806687891333 Mn
0.2505884440685375 0.7506800184796424 0.2499316120502687 Mn
0.2479541111938314 0.7463399092231153 0.755098776342732 Mn
0.7516802717441179 0.25070527968731 0.2481596192138191 Mn
0.747375506137531 0.2473514351387977 0.7531672063153989 Mn
0.7497572481350915 0.7503807490496873 0.2509967364401408 Mn
0.7540400207270457 0.7560817783677101 0.7412751045613069 Mn
0.139926890287021 0.1405344343784037 0.3471651508401707 O
0.137101251462955 0.1364801268125414 0.8516376409820186 O
0.1384560359697701 0.6394133657734599 0.3505797718974238 O
0.1334756777785735 0.6355562420184994 0.8536449590145434 O
0.6407852489068158 0.1379331399794795 0.3491513135876301 O
0.636718300875095 0.1312478045487118 0.8524202812784187 O
0.6380203034580356 0.6380982328404129 0.3488312529074581 O
0.6430028722446522 0.6439789403058727 0.8472126961261967 O
0.1403850456151992 0.3615421718228282 0.1221024118415191 O
0.138993673241819 0.3611647276523672 0.6240111428055968 O
0.1408451988849869 0.8618477527303463 0.1214871482290531 O
0.1231741760012281 0.8485561773843111 0.6392387377679734 O
0.6418064066443723 0.3628337168949994 0.120562980629846 O
0.6383724770020592 0.3568883864310821 0.6252559305950139 O
0.6415910110560258 0.8615805498701062 0.1211103692895126 O
0.6419821026946709 0.8640641714570253 0.6199142220839706 O
0.3626244044063258 0.1400504410435987 0.125249820370424 O
0.360759630195563 0.1382271114290856 0.627705247214662 O
0.3628145746013796 0.640831707046113 0.1255616986494569 O
0.3568910807343195 0.6390546369024191 0.6289827454365249 O
0.8627166910670389 0.1406685527544728 0.1231862805124517 O
0.8489124340474291 0.1234942868918031 0.6414391806206489 O
0.8631297734501191 0.6428670244994266 0.1235851228090581 O
0.8618419757092655 0.6432472159232234 0.6237796936182993 O
0.1384455127606628 0.1375282466147022 0.1237861849528638 O
0.1383425961701249 0.1391750031010666 0.6245904407065817 O
0.1387782771736225 0.6381063805289555 0.1245675101258303 O
0.130384150857895 0.6384606294583395 0.6280641408904728 O
0.6373051023717117 0.1400410658192833 0.1232719489238199 O
0.6386803387867533 0.1322215085382729 0.6246488130513562 O
0.6452410454010705 0.6421522623091255 0.1143208081935908 O
0.6370916840801032 0.6392075027768129 0.6240761282464444 O
0.3622862582024554 0.3629785032970322 0.1492420950802101 O
0.3585248101808231 0.3593415825514729 0.6543480657608943 O
0.3629917238280672 0.8631733527387719 0.1497075426180699 O
0.3587437635367496 0.8586604501069419 0.6516279641035675 O
0.8636871822325686 0.3634621549541637 0.1479430374060511 O
0.8588420248617358 0.3584628457563979 0.650379352028533 O
0.8609300890123661 0.8624106305511358 0.1500240023246826 O
0.8662034938238181 0.8691349117381576 0.6453178234667071 O
0.3602818747616994 0.1377928525698646 0.3773092642853793 O
0.3598065447228926 0.1376297333665624 0.8784343082180659 O
0.3580174153696428 0.6457803805374267 0.3763424957902682 O
0.3597880061221779 0.63678742656974 0.8784697709799133 O
0.8611246353250049 0.1385901576405437 0.3753944629690855 O
0.8573276009702038 0.1383010436352463 0.8792023829621158 O
0.8587572180648106 0.6382487167331401 0.3781675969496346 O
0.8758586790462718 0.6495284543908286 0.863305831450078 O
0.138412659437206 0.3605442838629421 0.3736906430988659 O
0.1376527673603515 0.3581029686053734 0.8763363974746781 O
0.1373584182749789 0.8603283002383895 0.373932644020932 O
0.1387794094113293 0.8569681646388748 0.8770784610976122 O
0.6446783931385458 0.3571565980623367 0.3720059176881084 O
0.6379652221744668 0.3600180576645208 0.8733284791030107 O
0.6373544441913896 0.8596594773066463 0.3744511161848098 O
0.6492795016412761 0.8762003593738028 0.8602574437310156 O
0.3610042489674931 0.3587535455836998 0.3772980145664321 O
0.361516586423541 0.3613823105116925 0.8773510757086925 O
0.3568312386755031 0.8619709992982407 0.3827969820693834 O
0.3635237675429775 0.8609064340111849 0.8755242631448317 O
0.8598355922368156 0.3604026311575325 0.3798426395096154 O
0.8621261912885578 0.3628379980519489 0.8743158067511182 O
0.8620333832436977 0.8618663174709228 0.3761188132641639 O
0.8685297614847786 0.8659898744999982 0.8698088457981195 O
