System                                  
   1.0000000000000000     
     8.8172624540578894   -0.0878537263150240    0.2706918239502399
     7.4721946581459937    4.6971538606051855    0.2609557105804541
    -0.2041902856766415   -0.0821406022442523   10.9344580241153171
  Li              V               F             
     1     8    28
Direct
     0.0248551061081342    0.4914543119385615    0.2386036010625370
     0.1473280864460964    0.6370925567872530    0.3979967323711260
     0.1413493934903982    0.6360165495230576    0.8961896261157098
     0.6271789195343955    0.1521993853672852    0.1447370206445547
     0.6310504184149073    0.1489284620689822    0.6465097080198730
     0.3687776563607348    0.8496199619530712    0.3541702144181194
     0.3698636005676872    0.8518634862428122    0.8534455795963770
     0.8564817639068280    0.3541809636985729    0.1013007884760441
     0.8568669637483258    0.3654521934402748    0.6043763752079704
     0.6373399158355828    0.5128504696265973    0.4471147037882415
     0.6412603290443573    0.5091028825960965    0.9473742689527436
     0.5021988594143848    0.6467087002766314    0.2065225013875400
     0.5078510335365216    0.6433426650406692    0.7045310722550622
     0.2074435332650575    0.0581581143488540    0.0042559822565148
     0.2059617418333093    0.0569231520882808    0.5047968889378837
     0.0796117010092191    0.1933966714165651    0.2614705975375738
     0.0807602983148509    0.1882723108849199    0.7612132277630843
     0.6032973082264382    0.8050859669005016    0.3388408325000865
     0.6045406760884816    0.8047697020926151    0.8388601007949735
     0.8170826929621522    0.5958097001980439    0.1053133366662021
     0.8135874942115744    0.6040181862083425    0.5899595415544370
     0.9239491361842864    0.7965642354483266    0.2433514117144723
     0.9240911021107883    0.8103240789517042    0.7352965217214206
     0.3803424680483666    0.1981989298441220    0.1664437406388784
     0.4023815944810736    0.1881927700368321    0.6579749570617112
     0.1256415400712541    0.8857329598304361    0.3753290445262644
     0.1380793866613380    0.8722481535885455    0.8718157651786627
     0.7943532228875534    0.9461391527030680    0.4935376966326132
     0.7943590344491712    0.9403725104658600    0.9877388153443274
     0.4872194359573754    0.3664369691164692    0.3005607701294414
     0.4955852041829943    0.3558216645341233    0.7929010825064183
     0.3555717919358472    0.4972679704011556    0.0490934687639977
     0.3613768162437254    0.4906997506564185    0.5538565261221620
     0.1685989666885960    0.4103756180561933    0.4021715695666855
     0.1896789929132338    0.3927780356629845    0.9050665015413392
     0.8880093518938144    0.1102147414834606    0.1301265617078210
     0.8675994847757873    0.1258790049546198    0.6259923550656438

  0.00000000E+00  0.00000000E+00  0.00000000E+00
  0.00000000E+00  0.00000000E+00  0.00000000E+00
  0.00000000E+00  0.00000000E+00  0.00000000E+00
  0.00000000E+00  0.00000000E+00  0.00000000E+00
  0.00000000E+00  0.00000000E+00  0.00000000E+00
  0.00000000E+00  0.00000000E+00  0.00000000E+00
  0.00000000E+00  0.00000000E+00  0.00000000E+00
  0.00000000E+00  0.00000000E+00  0.00000000E+00
  0.00000000E+00  0.00000000E+00  0.00000000E+00
  0.00000000E+00  0.00000000E+00  0.00000000E+00
  0.00000000E+00  0.00000000E+00  0.00000000E+00
  0.00000000E+00  0.00000000E+00  0.00000000E+00
  0.00000000E+00  0.00000000E+00  0.00000000E+00
  0.00000000E+00  0.00000000E+00  0.00000000E+00
  0.00000000E+00  0.00000000E+00  0.00000000E+00
  0.00000000E+00  0.00000000E+00  0.00000000E+00
  0.00000000E+00  0.00000000E+00  0.00000000E+00
  0.00000000E+00  0.00000000E+00  0.00000000E+00
  0.00000000E+00  0.00000000E+00  0.00000000E+00
  0.00000000E+00  0.00000000E+00  0.00000000E+00
  0.00000000E+00  0.00000000E+00  0.00000000E+00
  0.00000000E+00  0.00000000E+00  0.00000000E+00
  0.00000000E+00  0.00000000E+00  0.00000000E+00
  0.00000000E+00  0.00000000E+00  0.00000000E+00
  0.00000000E+00  0.00000000E+00  0.00000000E+00
  0.00000000E+00  0.00000000E+00  0.00000000E+00
  0.00000000E+00  0.00000000E+00  0.00000000E+00
  0.00000000E+00  0.00000000E+00  0.00000000E+00
  0.00000000E+00  0.00000000E+00  0.00000000E+00
  0.00000000E+00  0.00000000E+00  0.00000000E+00
  0.00000000E+00  0.00000000E+00  0.00000000E+00
  0.00000000E+00  0.00000000E+00  0.00000000E+00
  0.00000000E+00  0.00000000E+00  0.00000000E+00
  0.00000000E+00  0.00000000E+00  0.00000000E+00
  0.00000000E+00  0.00000000E+00  0.00000000E+00
  0.00000000E+00  0.00000000E+00  0.00000000E+00
  0.00000000E+00  0.00000000E+00  0.00000000E+00
