System
1.0
8.901941884281477 -0.0561118122294285 0.2951638800036072
7.560925754324951 4.702330428052709 0.286408471727274
-0.17771509223041 -0.0716187894668327 10.988280455289384
Li V F 
1 8 28 
direct
0.0212429028925627 0.4927045095940796 0.23889096488001 Li
0.1481900975457463 0.6373226248335551 0.3980436844278688 V
0.1405169256119587 0.6483653802780193 0.9008038525740042 V
0.6288382456988727 0.1531496723783505 0.1469299584457364 V
0.6333090214540531 0.1500121825028815 0.6478088075325662 V
0.3667559965099433 0.8499731632495648 0.3522195919629652 V
0.3710962899320726 0.8468441586530705 0.8530410092234507 V
0.8594718097025702 0.3516306842665493 0.0991898696472632 V
0.8518903017518504 0.3626180561851832 0.6019528356685334 V
0.6371582459354705 0.5106040445831082 0.4455837403906383 F
0.6467565946386659 0.4981369188882632 0.948795532318127 F
0.5000338588722292 0.648167152254928 0.2069348538327981 F
0.5103178001181244 0.6349225672902291 0.6976210884150932 F
0.2077026929363804 0.0614519490355948 0.0074538638225894 F
0.2042945333082511 0.0572790653825853 0.5028276378569679 F
0.0784670788755451 0.1949962500656168 0.2622726680488398 F
0.0759374865667309 0.2032193501167723 0.7546524412058655 F
0.6043345475690692 0.8003372655551453 0.3392754586376139 F
0.6212994632285717 0.7948200767161182 0.8325721183802893 F
0.8144294272180345 0.5968106779532122 0.1066451004812701 F
0.8293807720593925 0.5885744108395314 0.5964185049537101 F
0.9240096176123811 0.7968157312807091 0.2453508715270069 F
0.9216034065986503 0.8049568127007165 0.7377466515542968 F
0.3784751145456234 0.2053901913816677 0.1675214591882613 F
0.3960014414546342 0.1993333600772688 0.6606665084356473 F
0.1241259113557292 0.8865802799595169 0.3763308480436456 F
0.1124507674651896 0.8896561759768911 0.868103563839367 F
0.7958737843376582 0.9427486498606381 0.4971520794152273 F
0.7922313252505375 0.9384535414151666 0.9925755413759293 F
0.4896645430887213 0.3651092218510364 0.3023542168560842 F
0.5001059899581619 0.3517271715433987 0.793089995514693 F
0.3531668713381439 0.5019005242284283 0.051165331769326 F
0.3629009687114364 0.4893636951378149 0.5544654396982485 F
0.1704542784465351 0.4115900581297159 0.4037071422870571 F
0.1856609663952469 0.4031158845295791 0.89322138048242 F
0.8874024544099874 0.1104150110341019 0.1317612218829776 F
0.8759734884099081 0.11339646870328 0.6236936539521315 F
