System
1.0
11.400938747708212 -0.127046185305991 -0.2333408100202317
-5.717220176732502 9.997921982161543 0.0770862630575056
0.0362140596339119 0.0921245990614989 9.263612084811271
Li Mn Co Ni O 
12 12 8 12 64 
direct
0.170296180819861 0.3352003331665637 0.8977812286694643 Li
0.1682857085499959 0.8379425320173031 0.8971157169590049 Li
0.67444129965282 0.3393085402591032 0.8960660617342634 Li
0.664844559463172 0.8326974509470526 0.8955198901964869 Li
0.4991171454444359 0.998645311916319 0.9884590248445688 Li
0.5004094791276694 0.5052011342224376 0.4941868402379327 Li
0.4954219051153201 0.9901616123767056 0.4945832051627126 Li
0.9934029459003716 0.4983004096656797 0.4958189246172662 Li
0.330388141192886 0.1667084991916699 0.3989039137710344 Li
0.3268832460615999 0.6610312291293069 0.4059425364863593 Li
0.8328451908488191 0.1630208507238259 0.3988512366065645 Li
0.8295181176520066 0.6635011679583838 0.4047062535522292 Li
0.0857194727266474 0.4173806956781912 0.2091198760005072 Mn
0.0873625662725189 0.9187112087151741 0.204022950189482 Mn
0.5840223477195841 0.4148938811949445 0.2063039672611135 Mn
0.5844495166349366 0.9124065944483128 0.2128210947044411 Mn
0.0888349095037731 0.171568393898229 0.20329106763277 Mn
0.0863263264783838 0.6699746454543407 0.2089868360165478 Mn
0.5853242404795497 0.1703872088552434 0.2100428992052848 Mn
0.5837509063983397 0.668073219672244 0.2072559809228943 Mn
0.171804672933863 0.0839677788779839 0.7118580333829969 Mn
0.159878856414693 0.5793249438188646 0.7275975075585488 Mn
0.6739048646295643 0.0801928216317443 0.7094540045145272 Mn
0.6676126667573147 0.5872759053017685 0.7239252968917095 Mn
0.1660018778073945 0.3300733487442036 0.4796710488109682 Co
0.1693482134337085 0.8345304507658956 0.483000005748113 Co
0.6652916223519582 0.3282702618684753 0.4833024041696247 Co
0.6699742109716964 0.830662976652274 0.4840654846259891 Co
0.344537987624966 0.176566584235821 0.9810162871675885 Co
0.3320074915933217 0.6653538488393119 0.9857260659339088 Co
0.8455530547038265 0.174833511133816 0.9836040468735359 Co
0.8431514367921805 0.6736117357004575 0.986166214316108 Co
0.4215218462619474 0.0900255427024565 0.710328882323568 Ni
0.4095155534748203 0.5794088698356018 0.7191923336483953 Ni
0.9229354491443288 0.0876256246957336 0.7143974876154447 Ni
0.914130857015196 0.5862718953347551 0.7201599256107872 Ni
0.331099386377355 0.4184862109688793 0.204279078925188 Ni
0.3318680519103179 0.9152176676290523 0.209842650296539 Ni
0.832544027886604 0.4177645339481987 0.2030438744069455 Ni
0.8334135248393519 0.9170994073676662 0.2022856618881018 Ni
0.4161714635264088 0.3342149847131384 0.7164068898679042 Ni
0.4085202630275899 0.8246531068998318 0.7119657375064025 Ni
0.9126494174269394 0.3302042373608738 0.717246819678894 Ni
0.9136469247502683 0.8325509530241192 0.7178453006435283 Ni
0.1765191000900232 0.0892567407620807 0.098617360703016 O
0.1715345623576721 0.5874745389136246 0.1072248879880536 O
0.666838282888106 0.0830953359448872 0.1016848641465138 O
0.6708749549684464 0.5848778165896804 0.1080018238562899 O
0.4163136681048964 0.3260402450465491 0.0946500138740816 O
0.4200249342192642 0.8353786375528274 0.0934405095397548 O
0.9192394654500204 0.3283034330445454 0.0954604759554953 O
0.9234294015513362 0.8329121314450372 0.0942436249784023 O
0.3393898482391127 0.1755361987612923 0.6093012914772379 O
0.3243725543046634 0.6588578314842839 0.6166450805247824 O
0.8402443096820413 0.1714842392753736 0.6101406121826101 O
0.8317965524709257 0.6684242347177342 0.6162934054855509 O
0.2697959344047264 0.0272657610172033 0.8407579648807995 O
0.2478057111077372 0.517799390343336 0.8563843334764869 O
0.7648733971611587 0.0231546766833244 0.8417620222550197 O
0.760716105998907 0.5239516050912622 0.8486718151217623 O
0.2626619158121629 0.2418064608554191 0.8386907042530581 O
0.247968133092742 0.7300547295036294 0.8552345457867202 O
0.7589783555743368 0.2364943218701317 0.8382292474320269 O
0.7509844556360633 0.7326483656703588 0.8549043886065589 O
0.3364063686602328 0.416000234583547 0.5980547102056081 O
0.3277856878330307 0.9086479505996224 0.592354899457219 O
0.8246830482318384 0.4079449360064326 0.5989116090144075 O
0.8341130981006007 0.9122792301024607 0.5926464474830564 O
0.239713584519851 0.2619545714115726 0.3392631781900154 O
0.2337848702363106 0.7540750278909406 0.3483870339235325 O
0.7315000812549879 0.2515421846509897 0.3487818055011311 O
0.7307659232666701 0.7508162883563488 0.3461576278238972 O
0.0201402965397776 0.2574872336539935 0.3348448939742363 O
0.0207959254572815 0.762586204690257 0.3373065655735726 O
0.517038257096968 0.256852890576573 0.3363155006664368 O
0.515919251736365 0.755708733044549 0.3384117728099843 O
0.0847619672522966 0.1601792573967029 0.5957390332483207 O
0.0788080964098686 0.6619123045547329 0.6036915276660593 O
0.5822155761000094 0.1600055712454289 0.5929747884557219 O
0.5886941519347869 0.6698910654760468 0.601554427117349 O
0.0040503646841007 0.0009834139018417 0.8114800467516825 O
0.9876947391514039 0.4920560531949662 0.8183730838367976 O
0.5008999074030801 0.9960768649645968 0.7987516465852785 O
0.4937110474470638 0.4963378677536069 0.8166355876630595 O
0.0111741328215533 0.006387115095566 0.3008562992487858 O
0.0062232343520317 0.50314316180872 0.30548660958528 O
0.4989896634287924 -0.0018193641306611 0.3049901364872697 O
0.4971793053124122 0.4967201211398372 0.3022430583943589 O
0.1682614006289116 0.3377518996827315 0.1020237190796623 O
0.1707210743703483 0.836200797397902 0.1043825439120873 O
0.6583911140176463 0.3291983322849952 0.100531936572675 O
0.6566822722304904 0.8291065961807507 0.1013079754359297 O
0.485061281304151 0.2530905007903008 0.8444610443051807 O
0.4728253230091564 0.7382329737388884 0.8477351959232118 O
0.9838254347511143 0.2524689443961809 0.8456718342099573 O
0.9816299672295634 0.7502133432033514 0.8504603047117348 O
0.0760426593817876 0.4170064341337151 0.6081363093626417 O
0.0942184663761302 0.9215607542383669 0.5968239112444094 O
0.579567182336369 0.4196276319148745 0.6052455159457797 O
0.5933793044805248 0.9182303131935866 0.5950219936559287 O
0.2332120353483957 0.4784421336611522 0.3481996571394366 O
0.2405514055169722 0.9800370944297111 0.3438779689033646 O
0.7310073621958854 0.4751634323187836 0.3493337390166444 O
0.7345440643279177 0.976011805681102 0.3463035277012476 O
0.4250353100334255 0.0896741158106072 0.0879700834831365 O
0.4152414219834747 0.5892694001207017 0.0956401237404857 O
0.9227022440953532 0.0974398958317469 0.091538349245646 O
0.9225018400726648 0.5986791343294291 0.0958346777749992 O
