System                                  
   1.0000000000000000     
    10.2852317212148616   -0.0002002927936414   -5.4002187051931321
    -2.8351896634306994    9.8867470578824275   -5.4002254834420542
     0.0099513128610022    0.0132069081834311   12.5149077806612770
  Mg              Mn              O             
    12    32    64
Direct
     0.1897705669098622    0.3119592373479670    0.3810451341972829
     0.1912297099403725    0.3159676646397275    0.8782011921065248
     0.1871921253890417    0.8108884073769158    0.3713071804468391
     0.1852914255793452    0.8121444079867920    0.8799815058655177
     0.6887795138666540    0.3195429849734873    0.3767166118807795
     0.6794144105327600    0.3063256678650895    0.8659899722225987
     0.6920997684713558    0.8148330632591210    0.8740466788907905
     0.3102659576296298    0.1838962991795259    0.1239269818345949
     0.3118295123000592    0.6868422319565852    0.6233052684941770
     0.8138859395640491    0.1864773780737206    0.1226055221874333
     0.8124256513397713    0.1848354331023436    0.6212390072916035
     0.8114685022733112    0.6914168112282963    0.1315323795057672
     0.9959124797239702    1.0002474555122012    0.2473474993692615
     0.9975762902442211    0.9973059141968892    0.7465234948053237
     0.0019204487841460    0.4974575291034681    0.2504842521625947
     0.0063329875180796    0.5069885714277481    0.7622972921450002
     0.5048521602519481    1.0004362100647821    0.2539402981876485
     0.4985070243764460   -0.0001896785369362    0.7473764940436475
     0.4915158640230315    0.4972283766293851    0.2405062218513943
     0.5025509073764821    0.5039209070116792    0.7560171264347524
     0.9956468025402585    0.2466610844613384    0.9941832444268081
     1.0005146256868347    0.2496526751733389    0.4983723489175316
     0.0062827524880446    0.7490155611041476    0.0115220071756793
    -0.0032171494867871    0.7503762438844511    0.4978231536074134
     0.5047022872875113    0.2483034355972359    0.0062423030064056
     0.4984099863027088    0.2527041205975473    0.4999675627209574
     0.5030107844854455    0.7530503296071605    0.0072947362492909
     0.4951609424472664    0.7461259635614940    0.4837623819595641
     0.2551908637080492    1.0015979286895309    0.2561640543531866
     0.2519219810825934    0.0036575310730451    0.7558382518214019
     0.2482176139800105    0.4954185169414142    0.2458329542394484
     0.2552916890895870    0.5048552158326018    0.7606831425754695
     0.7482829146331790    0.0034695563413926    0.2511097070728347
     0.7471662140655869    0.9920488930717434    0.7364785989712935
     0.7482094080576117    0.4948051560501870    0.2406996757664651
     0.7532665112475491    0.5055888063837234    0.7562342551894299
     0.0009321800486817    0.0023859628247298    0.0023554934090695
     0.9999442334991502    0.9956986524268069    0.4946705244656940
    -0.0010549995468667    0.4994180607827329    0.0024274368566134
    -0.0045444466358801    0.4978298713481694    0.4953553898171243
     0.5004781645615346    0.9970675761635587    1.0000504840677571
     0.4957582803022163    0.9985375678138853    0.4948059879069136
     0.5022829647264893    0.5066385648342234    0.0058300306232495
     0.4992797214627982    0.5002047058455857    0.4942278088125214
     0.3754972030934939    0.3829668747254075    0.2454919452784853
     0.4006692563404878    0.4126117361160656    0.7989852592750977
     0.3912162098725765    0.9064878584347905    0.2875011708622835
     0.3773189302091676    0.8905142117570297    0.7529209221648466
     0.8731334905342305    0.3848824917880203    0.2466026119580524
     0.8746331334834673    0.3905929040775480    0.7520617010789974
     0.8757342661956063    0.8894524228053277    0.2477235020690104
     0.8853943608374355    0.9028336940057137    0.7709719909906702
     0.3649843742174533    0.1077727162428336    0.4599722174807204
     0.3923516482473849    0.1275667019523297    0.0051499715197448
     0.3872128850110976    0.6242047486339929    0.4947049417571254
     0.3933335305992169    0.6221253744813727    0.9987992625418844
     0.8875431419294878    0.1248850518216272    0.4954926046000095
     0.8838564215190419    0.1235812881777708    0.9959197219588571
     0.8580173641483031    0.5943846592079043    0.4431688976427005
     0.8887801310974059    0.6296308463665408    0.0073735654040606
     0.0873281731561759    0.1004178216893416    0.4493146564256362
     0.1122738969150377    0.1243269467215419    1.0010596238089313
     0.1083005599945190    0.6219033643490349    0.4957632890398995
     0.1057560953680793    0.6246929908959025    0.0019823075960345
     0.6087334575608058    0.1272183894786091    0.5005417941839649
     0.6136111278247488    0.1257763730724618    0.0013699989142168
     0.5865269052786558    0.5972505958620804    0.4445430534626545
     0.6141829574414617    0.6235722986266272    0.0024517977964509
     0.1237052554241946    0.1080929187857911    0.2472445686723908
     0.1290050132322454    0.1145404156043192    0.7520150087585280
     0.1217982370164521    0.6090344920064089    0.2467273483322407
     0.1237039127796409    0.6120411391173582    0.7493055137730398
     0.6228410974495630    0.1170342598560389    0.2484044375686210
     0.6049366385046396    0.1031146436191119    0.7182919450485954
     0.6093087775602292    0.5891129760298058    0.2149391557505632
     0.6253242968452422    0.6133024628882006    0.7479662879232292
     0.1239647956497871    0.3831198040928748    0.2485945016246860
     0.1237253750354377    0.3863239551504907    0.7480613813031334
     0.1148333294720356    0.8771140332466998    0.2325764288493301
     0.1266073949034039    0.8852355476556807    0.7505697116150127
     0.6144138316974476    0.3705191094115697    0.2232359185234023
     0.6222021747772916    0.3866620683119362    0.7455679531815148
     0.6208481087743865    0.8899468298071235    0.2372685155041010
     0.6221571013546019    0.8864567067849055    0.7445826567403078
     0.1121503040928854    0.3740186886235841    0.0017422183099682
     0.1154965821386838    0.3788797995959799    0.5068902294273477
     0.1303955720815042    0.8858771041820419    0.0311100765232178
     0.1188796394851291    0.8759027276868256    0.5034339819378922
     0.6251755596286793    0.3792410711425074    0.0183170254143048
     0.6156531821962549    0.3796656300847772    0.5046576565952878
     0.6136881649898391    0.8754736064259468   -0.0005638117000478
     0.6076197477180454    0.8849440415855009    0.5057689014704441
     0.3726438122950159    0.1100773737849562    0.2510913327934290
     0.4028339866653302    0.1382605814710948    0.8031264073048443
     0.3734248870262573    0.6029506825883572    0.2469360574161870
     0.3765818700494539    0.6135840010473376    0.7525010503764828
     0.8772813029074631    0.1129148132092758    0.2482310882462344
     0.8757871961257074    0.1154628574532636    0.7516250324800541
     0.8724574962130186    0.6063361781525216    0.2450252703795333
     0.9030050150871014    0.6422412864129541    0.8071100959323536
     0.3974340140267552    0.3819070842300851    0.0194430635240939
     0.3909470086331023    0.3804615424276147    0.5059714124571281
     0.3874658105041480    0.8784278111056156    0.0042759334597233
     0.3871967725147684    0.8786503777328014    0.5009806233521767
     0.8829454938712746    0.3720859879352115   -0.0022296438712341
     0.8889096077241464    0.3779467993865131    0.5044357859985182
     0.8987236980856634    0.8885880691097152    0.0272209479381127
     0.9042655716266734    0.8843280817098793    0.5154963040381502

  0.00000000E+00  0.00000000E+00  0.00000000E+00
  0.00000000E+00  0.00000000E+00  0.00000000E+00
  0.00000000E+00  0.00000000E+00  0.00000000E+00
  0.00000000E+00  0.00000000E+00  0.00000000E+00
  0.00000000E+00  0.00000000E+00  0.00000000E+00
  0.00000000E+00  0.00000000E+00  0.00000000E+00
  0.00000000E+00  0.00000000E+00  0.00000000E+00
  0.00000000E+00  0.00000000E+00  0.00000000E+00
  0.00000000E+00  0.00000000E+00  0.00000000E+00
  0.00000000E+00  0.00000000E+00  0.00000000E+00
  0.00000000E+00  0.00000000E+00  0.00000000E+00
  0.00000000E+00  0.00000000E+00  0.00000000E+00
  0.00000000E+00  0.00000000E+00  0.00000000E+00
  0.00000000E+00  0.00000000E+00  0.00000000E+00
  0.00000000E+00  0.00000000E+00  0.00000000E+00
  0.00000000E+00  0.00000000E+00  0.00000000E+00
  0.00000000E+00  0.00000000E+00  0.00000000E+00
  0.00000000E+00  0.00000000E+00  0.00000000E+00
  0.00000000E+00  0.00000000E+00  0.00000000E+00
  0.00000000E+00  0.00000000E+00  0.00000000E+00
  0.00000000E+00  0.00000000E+00  0.00000000E+00
  0.00000000E+00  0.00000000E+00  0.00000000E+00
  0.00000000E+00  0.00000000E+00  0.00000000E+00
  0.00000000E+00  0.00000000E+00  0.00000000E+00
  0.00000000E+00  0.00000000E+00  0.00000000E+00
  0.00000000E+00  0.00000000E+00  0.00000000E+00
  0.00000000E+00  0.00000000E+00  0.00000000E+00
  0.00000000E+00  0.00000000E+00  0.00000000E+00
  0.00000000E+00  0.00000000E+00  0.00000000E+00
  0.00000000E+00  0.00000000E+00  0.00000000E+00
  0.00000000E+00  0.00000000E+00  0.00000000E+00
  0.00000000E+00  0.00000000E+00  0.00000000E+00
  0.00000000E+00  0.00000000E+00  0.00000000E+00
  0.00000000E+00  0.00000000E+00  0.00000000E+00
  0.00000000E+00  0.00000000E+00  0.00000000E+00
  0.00000000E+00  0.00000000E+00  0.00000000E+00
  0.00000000E+00  0.00000000E+00  0.00000000E+00
  0.00000000E+00  0.00000000E+00  0.00000000E+00
  0.00000000E+00  0.00000000E+00  0.00000000E+00
  0.00000000E+00  0.00000000E+00  0.00000000E+00
  0.00000000E+00  0.00000000E+00  0.00000000E+00
  0.00000000E+00  0.00000000E+00  0.00000000E+00
  0.00000000E+00  0.00000000E+00  0.00000000E+00
  0.00000000E+00  0.00000000E+00  0.00000000E+00
  0.00000000E+00  0.00000000E+00  0.00000000E+00
  0.00000000E+00  0.00000000E+00  0.00000000E+00
  0.00000000E+00  0.00000000E+00  0.00000000E+00
  0.00000000E+00  0.00000000E+00  0.00000000E+00
  0.00000000E+00  0.00000000E+00  0.00000000E+00
  0.00000000E+00  0.00000000E+00  0.00000000E+00
  0.00000000E+00  0.00000000E+00  0.00000000E+00
  0.00000000E+00  0.00000000E+00  0.00000000E+00
  0.00000000E+00  0.00000000E+00  0.00000000E+00
  0.00000000E+00  0.00000000E+00  0.00000000E+00
  0.00000000E+00  0.00000000E+00  0.00000000E+00
  0.00000000E+00  0.00000000E+00  0.00000000E+00
  0.00000000E+00  0.00000000E+00  0.00000000E+00
  0.00000000E+00  0.00000000E+00  0.00000000E+00
  0.00000000E+00  0.00000000E+00  0.00000000E+00
  0.00000000E+00  0.00000000E+00  0.00000000E+00
  0.00000000E+00  0.00000000E+00  0.00000000E+00
  0.00000000E+00  0.00000000E+00  0.00000000E+00
  0.00000000E+00  0.00000000E+00  0.00000000E+00
  0.00000000E+00  0.00000000E+00  0.00000000E+00
  0.00000000E+00  0.00000000E+00  0.00000000E+00
  0.00000000E+00  0.00000000E+00  0.00000000E+00
  0.00000000E+00  0.00000000E+00  0.00000000E+00
  0.00000000E+00  0.00000000E+00  0.00000000E+00
  0.00000000E+00  0.00000000E+00  0.00000000E+00
  0.00000000E+00  0.00000000E+00  0.00000000E+00
  0.00000000E+00  0.00000000E+00  0.00000000E+00
  0.00000000E+00  0.00000000E+00  0.00000000E+00
  0.00000000E+00  0.00000000E+00  0.00000000E+00
  0.00000000E+00  0.00000000E+00  0.00000000E+00
  0.00000000E+00  0.00000000E+00  0.00000000E+00
  0.00000000E+00  0.00000000E+00  0.00000000E+00
  0.00000000E+00  0.00000000E+00  0.00000000E+00
  0.00000000E+00  0.00000000E+00  0.00000000E+00
  0.00000000E+00  0.00000000E+00  0.00000000E+00
  0.00000000E+00  0.00000000E+00  0.00000000E+00
  0.00000000E+00  0.00000000E+00  0.00000000E+00
  0.00000000E+00  0.00000000E+00  0.00000000E+00
  0.00000000E+00  0.00000000E+00  0.00000000E+00
  0.00000000E+00  0.00000000E+00  0.00000000E+00
  0.00000000E+00  0.00000000E+00  0.00000000E+00
  0.00000000E+00  0.00000000E+00  0.00000000E+00
  0.00000000E+00  0.00000000E+00  0.00000000E+00
  0.00000000E+00  0.00000000E+00  0.00000000E+00
  0.00000000E+00  0.00000000E+00  0.00000000E+00
  0.00000000E+00  0.00000000E+00  0.00000000E+00
  0.00000000E+00  0.00000000E+00  0.00000000E+00
  0.00000000E+00  0.00000000E+00  0.00000000E+00
  0.00000000E+00  0.00000000E+00  0.00000000E+00
  0.00000000E+00  0.00000000E+00  0.00000000E+00
  0.00000000E+00  0.00000000E+00  0.00000000E+00
  0.00000000E+00  0.00000000E+00  0.00000000E+00
  0.00000000E+00  0.00000000E+00  0.00000000E+00
  0.00000000E+00  0.00000000E+00  0.00000000E+00
  0.00000000E+00  0.00000000E+00  0.00000000E+00
  0.00000000E+00  0.00000000E+00  0.00000000E+00
  0.00000000E+00  0.00000000E+00  0.00000000E+00
  0.00000000E+00  0.00000000E+00  0.00000000E+00
  0.00000000E+00  0.00000000E+00  0.00000000E+00
  0.00000000E+00  0.00000000E+00  0.00000000E+00
  0.00000000E+00  0.00000000E+00  0.00000000E+00
  0.00000000E+00  0.00000000E+00  0.00000000E+00
  0.00000000E+00  0.00000000E+00  0.00000000E+00
  0.00000000E+00  0.00000000E+00  0.00000000E+00
