System
1.0
10.285231721214862 -0.0002002927936414 -5.400218705193132
-2.8351896634306994 9.886747057882427 -5.400225483442054
0.0099513128610022 0.0132069081834311 12.514907780661277
Mg Mn O 
12 32 64 
direct
0.1890055222651891 0.3115126875758331 0.3802877347650293 Mg
0.1894927728975131 0.3143946465645887 0.8757466837949751 Mg
0.1885999925066494 0.8137430596772502 0.3742376590433423 Mg
0.1850973095249155 0.812715565039101 0.8790305294253312 Mg
0.6885753576948596 0.3169967481397661 0.3745821156743374 Mg
0.6812312628141374 0.3086695178759178 0.8696967258142828 Mg
0.6923636204601684 0.8140135621059864 0.8754410749804936 Mg
0.3087732994442536 0.1855621656207058 0.1212992345477804 Mg
0.3156800269704709 0.6888405109417574 0.626590421097485 Mg
0.814680051623003 0.1896964564765718 0.1249884303701267 Mg
0.8122215208250858 0.1890868696205842 0.623439958678758 Mg
0.8143143920832737 0.6874351606451535 0.1286876729308375 Mg
0.995352031977418 -0.0010465651756068 0.2457328735381876 Mn
0.99718078960965 0.9990362736564491 0.7486018870172637 Mn
0.0027850361407864 0.5002826306372399 0.2534740230245604 Mn
1.005791998329168 0.5073386127223071 0.7610037840375188 Mn
0.4983993312478547 -0.0011563840199042 0.247836155794609 Mn
0.5021745437189427 0.0022379937596145 0.7526432034232002 Mn
0.4891577247177717 0.4963851835842781 0.2404558592349606 Mn
0.5021001441625966 0.5011909541246735 0.7536411210563122 Mn
0.9968339122305169 0.2492966059921285 0.996527914263797 Mn
0.9995396204236827 0.2495127883061659 0.4973154485842901 Mn
0.005956682068897 0.7486887320015859 0.0095401835287415 Mn
1.0004543812488274 0.7486277170033273 0.50142073796395 Mn
0.5032102845419515 0.24968240479037 1.004197056055195 Mn
0.4976031891604037 0.2484487428044608 0.4964120066893487 Mn
0.5010269542599235 0.7506091256707973 1.002165985000395 Mn
0.4963339573298062 0.7447077946344796 0.488978793380661 Mn
0.2524377880017531 -0.0019432718030391 0.2473405869961657 Mn
0.2517686095632301 0.003895034446461 0.7557955007191989 Mn
0.2475560838154957 0.4979128672449434 0.2469127200497925 Mn
0.2547358371261134 0.5041751856506416 0.7601081628053141 Mn
0.7484486422377287 0.0005618827096619 0.2499995047762946 Mn
0.7502536555046927 0.9983256307616202 0.7472636398355699 Mn
0.7509899362192256 0.4979557023297904 0.2477007801457478 Mn
0.7533185794177769 0.505379093660385 0.7558362498840439 Mn
0.0002224442244199 0.0033210407539657 0.0023336037585125 Mn
0.9980101761158119 0.9959784315778552 0.4941940703235895 Mn
1.0010663840286413 0.5006176564587025 1.0031057947729443 Mn
1.0010802426268826 0.5030001068778969 0.5027230623217422 Mn
0.5005584447210758 0.9985098637002282 0.9999965414203708 Mn
0.493997705997239 0.9945610572819239 0.4898507636566681 Mn
0.5007444498378146 0.5051700609097973 1.0026664014712232 Mn
0.4996586028214417 0.497467231595575 0.4942191964440895 Mn
0.37386956169033 0.3842437595097053 0.2451528959975834 O
0.3992651302017785 0.4116590580133881 0.7982472394477308 O
0.3751227747334506 0.8956428051687059 0.2524855914216108 O
0.378156155229399 0.8914628868668144 0.7552420181057863 O
0.8767081125677318 0.3870232320580946 0.2515433825581915 O
0.875584769584139 0.3919999737704402 0.7529388205710993 O
0.8732807970530454 0.8869832132726685 0.2455631598806557 O
0.8852415092398566 0.9039008515370357 0.7715881535533854 O
0.3633523443635633 0.1010359049855159 0.4517608905533162 O
0.3914221047697881 0.1277758853024825 0.0043925503330871 O
0.3891537669775578 0.6226431428787457 0.4971709371106222 O
0.3931900611320616 0.6226712371604843 -0.0024948801698595 O
0.8861114353196002 0.1229431022500147 0.4947479592210463 O
0.8854142719023094 0.1251673515807072 -0.0016161695752103 O
0.882374655009421 0.6137140364109891 0.4784935822273709 O
0.8891577890570775 0.6286832769677686 0.004858863278377 O
0.0854879320467042 0.0984472607315159 0.4484634125678642 O
0.1112583363525905 0.1253070550781014 -0.000668552365651 O
0.1149463615575239 0.6238640351391693 0.4983235356692347 O
0.1060613159047616 0.6250775881396375 0.0002403081539937 O
0.6095311470365964 0.1246866227817714 0.4960023993445824 O
0.6139164598058521 0.1281099935241286 0.003701599896738 O
0.5867593819988011 0.5964346986375957 0.4445165754792241 O
0.6149746912760804 0.623278803288255 0.0027681965333053 O
0.1206504125985236 0.1078219498685891 0.2459739418521212 O
0.1241457703380031 0.1120822741734084 0.7462818086712794 O
0.122676261245182 0.6113674474407788 0.2479279428249202 O
0.1260294785245052 0.6127059035576943 0.7510963622839223 O
0.6238207982121905 0.1127114011960611 0.2477191062168056 O
0.6195495606765495 0.1088628571970922 0.7419698851257039 O
0.6100395152936142 0.6002602696925421 0.2236447742848477 O
0.6248384352852642 0.6123794661919589 0.7475538569189691 O
0.1247345847299539 0.3845433479028582 0.2489907990327623 O
0.122602848029674 0.3857278694882165 0.7469600254618293 O
0.1139837745830492 0.8758679095103628 0.2299257504287207 O
0.1255740881532193 0.8872053118753812 0.7504663457149154 O
0.6110230873717221 0.3710691923735841 0.2229280029672307 O
0.6227193440540442 0.3854447228962801 0.7446272239058751 O
0.6249131305144153 0.8854779358236324 0.2468929049933187 O
0.6225771078757352 0.8842393955539478 0.7453544482321917 O
0.1135519192408487 0.3747477228640083 0.0021783600084089 O
0.1168501690492734 0.3774946295064514 0.5079222381813681 O
0.1265922989010636 0.8864266316680723 0.0263640265996815 O
0.1158211728735109 0.8779491176149223 0.5037644144978555 O
0.6119123336023927 0.3747397544862603 0.004023710432253 O
0.6150365492629495 0.3773610483630027 0.5026549594347379 O
0.6150631659362168 0.8762415912926802 0.0024259164577452 O
0.6115692698759985 0.8748574114050337 0.4988850271155986 O
0.370494026190429 0.1121585206357539 0.2472518588881936 O
0.399973998719106 0.1371042573978386 0.801459802996549 O
0.3748601508970045 0.6057747556590185 0.2497515953451883 O
0.3787433611029555 0.6136118876493332 0.7540377044505242 O
0.8743016039960603 0.1101731946878447 0.2462342206895884 O
0.87554250218209 0.1166217912951295 0.7517102612205223 O
0.8760158802675816 0.6119752651491199 0.2507287948893774 O
0.9020099977093243 0.642189958415184 0.8054936416490196 O
0.3959363459145105 0.3841075764400348 0.0200066405049958 O
0.3909055446715745 0.3780547940832841 0.5053603181439653 O
0.3885670104730755 0.878020895762282 0.003033865011221 O
0.3887422106109233 0.8755069488773457 0.5029298046481212 O
0.8855568493993569 0.3757304381651235 0.0009533908116684 O
0.8888888671729257 0.3772286283905354 0.5046065568759734 O
0.8980608930011991 0.8880712171945212 0.0270574798676141 O
0.8866842532838831 0.8750985718205111 0.499544738192203 O
