System                                  
   1.0000000000000000     
     4.2569358245917028   -0.1243706578894195    2.3768901475577193
    -1.5875655326629652    4.8196453921767404   -2.3821722715469664
    -0.1856593541812902    0.1320987140554922    5.0096536840974384
  Mn              O             
     1     6
Direct
     0.9012842592109376    0.8865201300223462    0.1165605500854069
     0.2658355880959886    0.9473224676539149    0.8274590160642695
     0.3312289334025713    0.2290166138197542   -0.3281088333524143
     0.1087164439564969    0.3154440132515822    0.7845056282861037
     0.8821469341731762    0.6907301838464396    0.2875533410441305
     0.6113486315357786    0.7485243109748859    0.9788434305292334
     0.8994385814803361    0.1824405405488732    0.3331874242112196

  0.00000000E+00  0.00000000E+00  0.00000000E+00
  0.00000000E+00  0.00000000E+00  0.00000000E+00
  0.00000000E+00  0.00000000E+00  0.00000000E+00
  0.00000000E+00  0.00000000E+00  0.00000000E+00
  0.00000000E+00  0.00000000E+00  0.00000000E+00
  0.00000000E+00  0.00000000E+00  0.00000000E+00
  0.00000000E+00  0.00000000E+00  0.00000000E+00
