System                                  
   1.0000000000000000     
     3.8607196423156500   -0.1167365212781854    2.1675508443510401
    -1.3720347569366471    4.4214634328796292   -2.1960033227626834
    -0.1577849848473960    0.0649280695464058    4.6070926953107731
  Mn              O             
     1     6
Direct
     0.9856990584298674    0.9775438199859591    1.0046179588058013
     0.2874323043843610    0.7989914867112174    0.6078737188112632
     0.4036053438117655    0.3201338449003386    0.0298464840114155
     0.0318541849288025    0.2383216796718558    0.7860090632224140
     0.9883775981751897    0.7603356549831409    0.2304382010172142
     0.5800632471754941    0.7335307315444176    0.9080848666220782
     0.7229676349498209    0.1711410423208677    0.4331302643777628

  0.00000000E+00  0.00000000E+00  0.00000000E+00
  0.00000000E+00  0.00000000E+00  0.00000000E+00
  0.00000000E+00  0.00000000E+00  0.00000000E+00
  0.00000000E+00  0.00000000E+00  0.00000000E+00
  0.00000000E+00  0.00000000E+00  0.00000000E+00
  0.00000000E+00  0.00000000E+00  0.00000000E+00
  0.00000000E+00  0.00000000E+00  0.00000000E+00
