System
1.0
9.897317950528732 -0.0029271268046785 -0.0007080970859342
0.0041209076868966 12.699359464741258 -0.0001603373987241
0.0006672815599464 0.000126383522056 9.369809233586876
Li Fe P O 
13 16 16 64 
direct
0.2335556223285011 0.1253890321316001 0.1640311013357021 Li
0.2361431024941209 0.623418237722037 0.1707418572269288 Li
0.733694077399897 0.1253598594799128 0.1633403622446626 Li
0.7359619496322609 0.6235145471340992 0.1713374804860905 Li
0.4836811417270692 0.8730051305380816 0.332175347495043 Li
0.9887494805050033 0.3739514124839113 0.3298733610158768 Li
0.9845216112325254 0.8731687516236633 0.3319735414050328 Li
0.0076507850658975 0.6232695318957352 0.6778732668033796 Li
0.5077930820856876 0.6232009013090911 0.6771035996933951 Li
0.2650399590979746 0.372769422295559 0.826399436639974 Li
0.2646006585405389 0.8770572277450617 0.8281653570814088 Li
0.7648433890491717 0.3725617983088618 0.8261470348889645 Li
0.7644352517864429 0.8770208211734802 0.8289816981074724 Li
0.0015756894940494 0.0023718969325771 0.9940012577031319 Fe
0.0001552741857297 0.4988857034615374 0.0013442856076026 Fe
0.5021652906423849 0.0026114042605261 0.9929300661745207 Fe
0.5001786951903313 0.4989983552189933 0.001396723017382 Fe
0.0015860378666514 0.2474317843222436 0.9921424291086789 Fe
0.0012795393700801 0.750916957176147 0.0008414107632116 Fe
0.5021506240771424 0.2471427969762219 0.9913355216344099 Fe
0.5014343210029544 0.7510187024362133 0.0012862064442821 Fe
0.2464033466518774 0.0053336066049685 0.5022842768715698 Fe
0.2488798678116469 0.500398446668092 0.5019693312342683 Fe
0.7466020920579022 0.0050959106654761 0.5021754794311865 Fe
0.7491670462289246 0.5004443160607132 0.5020550273484936 Fe
0.2581156792921021 0.2528333231354374 0.5079004206616424 Fe
0.2443993188433582 0.7463505942640257 0.4991148951228844 Fe
0.7583052369734318 0.2528318386556054 0.5081519258747107 Fe
0.7450168098916216 0.7465135158620106 0.4994072897079744 Fe
0.2602168612669686 0.1217964187079343 0.819445035624563 P
0.2635495092207668 0.6278368121648077 0.824130497622434 P
0.7606393103377155 0.1216939334293056 0.819044989782542 P
0.763287805774642 0.627722249265057 0.8243377673167119 P
0.0172215153854145 0.3808007803190884 0.6771507872000316 P
0.0127214410862875 0.8690916300707414 0.6722517422661193 P
0.5174083229427625 0.380798823028062 0.6772367700439028 P
0.5131150228880909 0.8688252788418759 0.6722883367845655 P
0.4860335369754292 0.1235412222826615 0.3267288503165687 P
0.4843612367747223 0.625501985833157 0.3217130884820939 P
0.9857799023881147 0.1237943559217706 0.3264441715783534 P
0.9843102349929447 0.6254837457775491 0.3210970267361615 P
0.2374049347309912 0.3738020356820538 0.1784764401684869 P
0.2371982640183801 0.8772425860715205 0.1804237661815655 P
0.7373751000315438 0.3738645316104594 0.178400959432725 P
0.7371208424979907 0.8775200851153472 0.1807853866375656 P
0.1129837970218966 0.1229903049848966 0.8767495246791427 O
0.1108046280511322 0.6282856398705376 0.8662548933167654 O
0.6130505479578002 0.1229750019712973 0.8754680396279598 O
0.6105073798167511 0.6280538254137603 0.8662343223164405 O
0.0409923465324119 0.3770524446634144 0.8440670344163518 O
0.0402479392958078 0.8750506471133249 0.8370364257761674 O
0.5410469752341387 0.3770942514690178 0.8442459662496969 O
0.5411861312575541 0.875046815294821 0.8370302229331712 O
0.271041164750999 0.1176968183820014 0.6500172649877413 O
0.2904845353748896 0.6277553413266985 0.6581201666067238 O
0.7720322283109238 0.117510040074864 0.6497057706579148 O
0.7907490708286553 0.6277707396736879 0.6583861593479846 O
0.3634227728316627 0.3788376010997364 0.6379554010030324 O
0.3589019080247093 0.8784082886645138 0.6318736141475236 O
0.8632201222637902 0.3788457467380648 0.6379012063105258 O
0.858655541392161 0.8787803886042905 0.6313705712041873 O
0.0898279788656641 0.2869956132896682 0.6119343595271075 O
0.0700141084633588 0.7635985494885418 0.6178656133410046 O
0.5902110011078052 0.2870164194144902 0.6123996804104422 O
0.5705460466854679 0.7633230176685045 0.6180893070791501 O
0.0785381927952265 0.4860639018924188 0.6232961375631992 O
0.0890380234595505 0.9603487543993094 0.6007967844215574 O
0.5788787688665192 0.4860355899094247 0.6234861701943337 O
0.5890372842271228 0.9600577573016492 0.6003583338246006 O
0.4121645364347112 0.0253609729191617 0.3897662184312148 O
0.4184108764643139 0.5244780648551075 0.3810214764290215 O
0.9126146741544225 0.0255300949888607 0.3898562045976645 O
0.9183314148825227 0.524485821603709 0.3804514217001442 O
0.1693180500626064 0.2730898292943897 0.1191921311610475 O
0.169008364077607 0.7757248880907112 0.1256178644310587 O
0.6695903343852062 0.2731303542353244 0.1187880865807587 O
0.6690102979249094 0.7758471910206803 0.1263739665726953 O
0.1406626718830176 0.1150409049230433 0.3644189351589984 O
0.1378967908164299 0.6263285314408746 0.3603398268484785 O
0.6407127407222614 0.1145788438646397 0.365282200751017 O
0.6379512661948449 0.6263177591981731 0.3609412829594001 O
0.212560967710177 0.3742535457369203 0.3447517098512454 O
0.2108202705004259 0.8804316225971781 0.3492055953763732 O
0.7123070899070362 0.3742844117496448 0.3446138898799069 O
0.7108200045201665 0.880829835434219 0.3494934895618309 O
0.4604420586030064 0.1222177803918674 0.1613653958105447 O
0.4593337990142625 0.6255085546615332 0.1553793659698056 O
0.9593946747352284 0.1223972086337039 0.1612599537855757 O
0.9593043389742844 0.6254618293097138 0.1547599402051426 O
0.3905439491506039 0.3730501721389152 0.1376012878464651 O
0.3905030194686824 0.8764212037712894 0.1426682552592172 O
0.8906089281073374 0.3731622284497398 0.137718338166033 O
0.8904773605585476 0.8768784968582549 0.1430091563273571 O
0.3316066242132242 0.2235451283321181 0.8697021331092415 O
0.3301464550797481 0.7296189851370434 0.8827920463202734 O
0.8317595988547015 0.2234513900927848 0.8696272650534362 O
0.8295169435922023 0.7295911164370521 0.8832565652482411 O
0.1704372179186797 0.4749804252604278 0.1195412168236065 O
0.1699745672960805 0.9764880569445943 0.1185813376430959 O
0.6704934437907661 0.4750444588930773 0.1193980344431268 O
0.6698284261985681 0.9765921095326876 0.118437189255263 O
0.4254906932706616 0.2260164562380404 0.3854911378348815 O
0.4158398386045336 0.726309779145536 0.3799513340980511 O
0.9253178855142774 0.2262895075785694 0.3852534741722923 O
0.9157589090007027 0.7263324623560298 0.3791715147953612 O
0.3303934213066202 0.0211501591657599 0.8762061105253706 O
0.3308670523395077 0.527169308354376 0.882981511230971 O
0.830379128640665 0.0210466005914544 0.8763734573096091 O
0.8307634569770024 0.5271022198975197 0.8830872220091428 O
