System                                  
   1.0000000000000000     
     5.1723479416872014    0.0677574445227050    2.6339622311744755
    -1.4030409666575852    4.9782863254527010    2.6323820203620052
     0.3078343195315773    0.4092649531259694    5.7839230156538513
  Mn              O             
     4     8
Direct
     0.5080723864595648    0.5220308279891525    0.9839742351692783
     0.5073616798212990    0.0226775443400462    0.4853221148454314
     0.5068649892420499    0.0209383007657824    0.9864217313958352
     0.0073374546444544    0.0227731026532189    0.4851151958120692
     0.2724378857028723    0.2568785225316553    0.0148065508079777
     0.7417136567409132    0.2273335185332976    0.5162693302495767
     0.2716728264537466    0.8167522554840310    0.4567557378303477
     0.7434595249674022    0.7882413696430861    0.5131588665739159
     0.2723363734354694    0.2583818065289967    0.4550932669330175
     0.3018471750323728    0.7862913995270679    0.9558705373148366
     0.7424541900109859    0.7861742178027350    0.9556921701261964
     0.7128108218172338    0.2566160660432572    0.0150049180801703

  0.00000000E+00  0.00000000E+00  0.00000000E+00
  0.00000000E+00  0.00000000E+00  0.00000000E+00
  0.00000000E+00  0.00000000E+00  0.00000000E+00
  0.00000000E+00  0.00000000E+00  0.00000000E+00
  0.00000000E+00  0.00000000E+00  0.00000000E+00
  0.00000000E+00  0.00000000E+00  0.00000000E+00
  0.00000000E+00  0.00000000E+00  0.00000000E+00
  0.00000000E+00  0.00000000E+00  0.00000000E+00
  0.00000000E+00  0.00000000E+00  0.00000000E+00
  0.00000000E+00  0.00000000E+00  0.00000000E+00
  0.00000000E+00  0.00000000E+00  0.00000000E+00
  0.00000000E+00  0.00000000E+00  0.00000000E+00
