System                                  
   1.0000000000000000     
     5.1110439322259049    0.0688160878389372    2.6054192801364917
    -1.3708412075377092    4.9373745503223123    2.5756726945017698
    -0.2157719406788205   -0.2285430174502643    6.7648695719333425
  Mn              O             
     4     8
Direct
     0.5097840769118885    0.5233430379362868    0.9801277530516245
     0.5064849302495783    0.0192476157490106    0.4915689676539100
     0.5074481754288090    0.0226257725281181    0.9848689150396714
     0.0019870548386909    0.0189405413093374    0.4920957033414847
     0.2830301475475283    0.2609329420362884    1.0074365167469639
     0.7473156019647476    0.2264002984233771    0.5052029956920097
     0.2705882828078272    0.8222186665081757    0.4596477209596487
     0.7440660809761378    0.7946085515327913    0.5127752864225172
     0.2664152749807993    0.2450385000706560    0.4668187732979980
     0.3071129736878380    0.7860471676240871   -0.0424068098529663
     0.7350500436523832    0.7853979781414763   -0.0423117994936304
     0.7090863212821458    0.2602878599827047    1.0076606322794217

  0.00000000E+00  0.00000000E+00  0.00000000E+00
  0.00000000E+00  0.00000000E+00  0.00000000E+00
  0.00000000E+00  0.00000000E+00  0.00000000E+00
  0.00000000E+00  0.00000000E+00  0.00000000E+00
  0.00000000E+00  0.00000000E+00  0.00000000E+00
  0.00000000E+00  0.00000000E+00  0.00000000E+00
  0.00000000E+00  0.00000000E+00  0.00000000E+00
  0.00000000E+00  0.00000000E+00  0.00000000E+00
  0.00000000E+00  0.00000000E+00  0.00000000E+00
  0.00000000E+00  0.00000000E+00  0.00000000E+00
  0.00000000E+00  0.00000000E+00  0.00000000E+00
  0.00000000E+00  0.00000000E+00  0.00000000E+00
