System
1.0
11.400938747708212 -0.127046185305991 -0.2333408100202317
-5.717220176732502 9.997921982161543 0.0770862630575056
0.0362140596339119 0.0921245990614989 9.263612084811271
Li Mn Co Ni O 
13 12 8 12 64 
direct
0.1708945872516663 0.3362029950262112 0.8986929800256686 Li
0.1671240088901528 0.8364670499918604 0.8981839019080072 Li
0.674242199335127 0.340257828344733 0.8965595606034238 Li
0.6634043822643323 0.8327194062854706 0.8955552081307361 Li
0.4967040095857348 0.9976797728490787 0.9905310648083603 Li
0.4996748143780039 0.5049335847914852 0.4936739869141094 Li
0.4969548239660407 0.9904774980942299 0.4927196137501441 Li
0.9939636292448719 0.4983597725612562 0.4945860227690035 Li
0.9979379824521623 0.9932085195780666 0.4929840790164675 Li
0.3313736861359163 0.1661157151679986 0.3984624922718447 Li
0.3259398327952401 0.6619196302743827 0.4053443580879391 Li
0.8311822224658089 0.1623493573972337 0.4002829226905791 Li
0.8283519683631888 0.6627259753202395 0.40480624201907 Li
0.0870030904940733 0.4186118313955978 0.2095612954002743 Mn
0.0889451588504098 0.9170726489016194 0.2122606614669813 Mn
0.5844303770195711 0.4152618600953466 0.205937473051003 Mn
0.5856142690109127 0.9127898187523312 0.2116581810370881 Mn
0.0885246541192533 0.1727901211200558 0.2108462667829276 Mn
0.085130167606067 0.6705129456402804 0.2079185200484538 Mn
0.5875756050493253 0.1708378379236582 0.2096726923479503 Mn
0.5833444129257597 0.6681696871730496 0.2068524053298278 Mn
0.1749923420238418 0.085518076940868 0.7076162611754178 Mn
0.1600305568927347 0.5788162672130932 0.7278961672717948 Mn
0.6725907894959201 0.0800644645874613 0.7102938159740064 Mn
0.666969373145306 0.5870688080228219 0.7231498665597753 Mn
0.1661999564555627 0.3309314533909239 0.4812458016079423 Co
0.1684300329092227 0.8329347870672744 0.4857623551528614 Co
0.6671330107542758 0.3287319189976457 0.4822103597236736 Co
0.6677995537483523 0.8294984242841379 0.48383799396867 Co
0.3463322320720584 0.1775151987757837 0.9808799944212533 Co
0.3341590183399442 0.6664541421270372 0.9862377680575615 Co
0.845037376259813 0.1770634824178423 0.9822583236788872 Co
0.8417971687886247 0.6733522640989716 0.9853277344568455 Co
0.4224961784295668 0.0900011662019477 0.7100254499069163 Ni
0.4086594849027734 0.5789909480473393 0.718645967517559 Ni
0.9221795909235111 0.0885936068832114 0.710142775205694 Ni
0.9139689675365342 0.585609746862553 0.7202021683393431 Ni
0.3317168822174055 0.4185188608449695 0.205205790737855 Ni
0.3316660081771142 0.9149664230731772 0.2122953100306118 Ni
0.832050216428099 0.4181705448924494 0.201639937950668 Ni
0.8320558906039115 0.9161379789479709 0.2105151795700254 Ni
0.416594167468028 0.3349430604076652 0.7160571139718171 Ni
0.4067910796808645 0.8241020171127478 0.7122912436548974 Ni
0.9123352955915053 0.3300943908293998 0.7169628105818996 Ni
0.9115466476079227 0.830221282724453 0.7137190120383106 Ni
0.170375644001423 0.0858569140641357 0.0980189018442934 O
0.1717213475455885 0.587699850070737 0.1073023774730515 O
0.6696253152583483 0.0844979856655851 0.0985747864745084 O
0.6713681050294487 0.5856213108361491 0.1081567527265926 O
0.4163365476418194 0.3263007132412552 0.0957372020071729 O
0.4216459606751746 0.8325492025308272 0.0934157621337286 O
0.9177482286230787 0.3239740389848799 0.0936594334241787 O
0.9235910359512317 0.8358794808895645 0.0954324817487055 O
0.342033680564412 0.1762396512030414 0.6084300843639315 O
0.3226435777849597 0.6565785033375562 0.6164350467683589 O
0.8391805231818582 0.1717746477315645 0.6098440619023981 O
0.8302029557438396 0.6655779803678158 0.6144859843407364 O
0.2695780073090665 0.0271634340251654 0.8386895556952928 O
0.2485552948215881 0.5176619397866492 0.855992340909498 O
0.7664400221148003 0.0254502957620211 0.8432267253856379 O
0.7606858133029163 0.5243025571213353 0.8479465642635446 O
0.2617653281429443 0.241602511521411 0.8361931464776803 O
0.2478203972217923 0.7300722675871641 0.8551248811189917 O
0.7586909602678636 0.2375736381986975 0.8387035205073621 O
0.7508930089803738 0.733516836611774 0.854094619161121 O
0.3361935929809176 0.41602698622559 0.5974170828644375 O
0.32943908030728 0.9067001031584815 0.5885612810170484 O
0.8248364175431064 0.4075095145605571 0.5986110654368315 O
0.8342018436398416 0.9112597191995504 0.5917206900983637 O
0.2406639078622978 0.2626914006009147 0.3424659279204764 O
0.2301067033346434 0.7519368895931918 0.3505825733712383 O
0.7351445178319569 0.2548107593149303 0.3478517156444945 O
0.7287012531880649 0.7498171624532677 0.3492018034984727 O
0.019375879564728 0.2582792097544358 0.3369396858440274 O
0.0198886093106866 0.7606173325548686 0.3413026852847194 O
0.5191756430288155 0.2574474693578863 0.3371356022433172 O
0.5151917692043835 0.7560443283778319 0.3378078554451735 O
0.0856592396481307 0.1619355058055061 0.5925404983192134 O
0.0782581110512233 0.6602484005269019 0.6052648606274734 O
0.5832805017878404 0.1595884403685811 0.5930172719613025 O
0.5877711979079746 0.6696248530751038 0.6008651043461702 O
0.0046732113718923 1.0021425499121026 0.8014431222243991 O
0.9875010873880482 0.4910568480179668 0.8190051069112038 O
0.5011129665563989 -0.0026686208327101 0.8002955384238346 O
0.4932636322339532 0.4969086556867001 0.8164327236427878 O
0.0112599386301683 0.0068625338835707 0.3055075098834354 O
1.0053972990699787 0.5018498317322001 0.3039802352865427 O
0.5102727445354295 1.0039568306296598 0.3050216488071634 O
0.4977407672240268 0.4971176406278408 0.3023355919268527 O
0.1683031003144949 0.3368590248858354 0.1040055099554803 O
0.1606821226999323 0.8320448696820502 0.1023228295730508 O
0.65824033479117 0.3303438862045603 0.0994440122955197 O
0.6591814921880721 0.8288783420957285 0.1014177094037695 O
0.4865039001702002 0.2551227604103614 0.8437155591095388 O
0.4732751878408958 0.740144873131269 0.8453960507315217 O
0.9834955244762956 0.2521492238161535 0.8450877580818643 O
0.9804091361054831 0.7522068674584885 0.8482535904185076 O
0.0754454535578051 0.4164369878754919 0.6078289637011813 O
0.0953640129036671 0.9219181589725673 0.5948952185686718 O
0.5795844742891538 0.4203907823849149 0.605227385081436 O
0.5938236421233518 0.9180613534010208 0.5955692923204918 O
0.2333069285913885 0.4789845484026339 0.3481695238997344 O
0.2378981243986529 0.979496181978764 0.3495060788554999 O
0.7312808364279687 0.4758907433243196 0.3493424845756501 O
0.7349182609076409 0.9750694517861581 0.3491121036508748 O
0.4244146782877942 0.0913385277298609 0.0901293089404856 O
0.4166021835921709 0.5885264005210213 0.0942304886765929 O
0.9290659308828435 0.094915475377333 0.0871964379324727 O
0.9196306587972878 0.5979465796120637 0.0948697113503067 O
