System
1.0
10.362654199567075 0.6680397148495248 5.890074447848777
3.510047580411978 10.073208645045039 5.577995800114263
-0.2770176937874708 0.4281704396772118 11.509736570530237
Li Mn O 
2 32 64 
direct
0.4369348020928965 0.9367690755676273 0.439342688998713 Li
0.9359436880036385 0.4346617956708468 0.9364735109519297 Li
0.2464064231563687 0.243945519418949 0.0033862153880849 Mn
0.2418720022395963 0.2460799924078549 0.5049333430119447 Mn
0.2533527031431448 0.7449301256313205 0.0018463449483523 Mn
0.2546857172355647 0.7520545006530284 0.4990409443819981 Mn
0.7485163554783869 0.2499735276643638 6.2884714479e-06 Mn
0.7470245159776054 0.250951668394262 0.5005274907937287 Mn
0.7524934410925677 0.7520977773342824 0.9979539942960611 Mn
0.752978535536205 0.7572695089749121 0.4979187653668934 Mn
0.247799004368258 0.9991500786141586 0.2500388502125908 Mn
0.2470290735990414 0.9986860416353234 0.7541119665581021 Mn
0.2448332444018374 0.4956501096003493 0.2560134372180267 Mn
0.2536211033054642 0.497117266876343 0.7490009922655876 Mn
0.7511142068651716 0.0067427225445363 0.2470326458713285 Mn
0.7508576726006997 0.0015536485795955 0.7472719178056844 Mn
0.7518458301272318 0.5016226302221052 0.2498680328313101 Mn
0.7503966179427821 0.5014018711830984 0.7462981475808704 Mn
0.9985795797574436 0.2479114793754395 0.2530547321091187 Mn
0.996249120018641 0.2453359506602982 0.7515787437754805 Mn
0.0017323621472056 0.7515027149292293 0.2503571534202368 Mn
0.0069173226436383 0.7517805051004258 0.7448291237246951 Mn
0.4972099356388297 0.2528651848786939 0.2505492319904981 Mn
0.4957904747398704 0.243879801873762 0.7539931500492988 Mn
0.5022920172236826 0.751644169681052 0.2465388407543582 Mn
0.5043435082149975 0.7528130112520026 0.7491550963818115 Mn
0.243716791537112 0.2468330641062169 0.2558372417519078 Mn
0.2450374985358353 0.2430349061369479 0.756786006065806 Mn
0.2519693831132927 0.7467749031977223 0.251652989747277 Mn
0.2551392733024117 0.7503359116049237 0.7460181762202261 Mn
0.7518810310669966 0.2539729698369035 0.2439050064618813 Mn
0.7442831024935532 0.2472754083639777 0.7550057163057824 Mn
0.7516783794203789 0.7526740210616405 0.2481938406755307 Mn
0.7536028353958475 0.7560430930269219 0.7433634623060704 Mn
0.1337462890243944 0.131502244967242 0.3533036675062421 O
0.133665550479309 0.1286703359871605 0.8548685635070989 O
0.1370168452981298 0.6358710667590882 0.3518931162460519 O
0.1430524748938198 0.6411564252131838 0.8451566309115858 O
0.6430939741297957 0.1395703860966123 0.3458054236309074 O
0.6369598240285763 0.1299782829711316 0.8516518914595581 O
0.6411671378463296 0.6385406709035971 0.3474790918568762 O
0.6427453823290115 0.6436898827050503 0.8444342746402974 O
0.1238243838257817 0.3460082468487488 0.1368558972839667 O
0.1200402071279482 0.3444604882040555 0.6417221968120267 O
0.1303695228549413 0.846689227694209 0.1352985749560275 O
0.1288788156493409 0.8529192521691956 0.6332304364467258 O
0.6452260448644416 0.3569925279259632 0.1201894420390376 O
0.6206425970369527 0.3466604788693616 0.6398431639403714 O
0.6294187423402168 0.8512979699566233 0.1321044486039741 O
0.6269784360178577 0.8570669596725704 0.6329257027340903 O
0.3458389039754302 0.1239287761419842 0.1431655483684354 O
0.3445624400791452 0.1223261289025142 0.6420082535968097 O
0.3492359303564567 0.6205825550162422 0.1427348829808108 O
0.359496072863062 0.6459412540104286 0.62459088963459 O
0.8530636988482814 0.1262597190692002 0.1378244769732282 O
0.8471337164995589 0.1273055791635767 0.6373996401279884 O
0.8515148807488735 0.6293504878264536 0.1377541824007668 O
0.857288174807591 0.6491117193316219 0.6229527151705878 O
0.1314731643883757 0.1337039465401365 0.131306574439594 O
0.1301530787718452 0.1318505502300023 0.6326508081900039 O
0.1338814112037385 0.6386480338956635 0.1279076720391739 O
0.1400089773287553 0.6439029419139772 0.6213256795045229 O
0.6398274315971773 0.1387361446991393 0.1242068971287981 O
0.6354770616925057 0.1361269007678458 0.6256241015266502 O
0.6386226858518961 0.6413191099048565 0.122936677403404 O
0.6370845286359542 0.6483398814649018 0.6208756863366892 O
0.3520859342340142 0.361974689842557 0.157264170146967 O
0.3570904656549104 0.3536250442737442 0.6562963415778037 O
0.3627196473453587 0.863116157628916 0.1498511066632591 O
0.3636854354389708 0.869171552206309 0.6472574804186406 O
0.8657521610813874 0.3692233313554499 0.144945414321074 O
0.8589428090008894 0.3559374647828404 0.6535215426270725 O
0.8646782625221133 0.8682003183530809 0.1449176812710254 O
0.8658041422305824 0.868014877121118 0.6479809036767206 O
0.3527136906933975 0.1385406300522861 0.3810919864515096 O
0.3701997076512195 0.1431012734597429 0.8694656212217899 O
0.3780052043784071 0.6517737247305604 0.3640400916655882 O
0.3780997030469229 0.6513048344442431 0.8615829663410637 O
0.8714441785538284 0.153173120625968 0.3648612679934753 O
0.8727761845185359 0.1419652136395878 0.8676157304738285 O
0.8728984725774677 0.6560226427447642 0.3633526911070867 O
0.8783903692609655 0.6490486724539548 0.8628428644112378 O
0.1427287838549525 0.371530901319872 0.3662229691678139 O
0.1377377703701562 0.3532629377104964 0.877652773560222 O
0.1531483268129715 0.87133964895463 0.3604302651046375 O
0.1479612504676288 0.8704728791464575 0.8661266614540484 O
0.6519903414975459 0.378023734072009 0.3562342946260844 O
0.6446412655120215 0.3555173018484508 0.8740429126511351 O
0.6474182130654533 0.8795727976300093 0.3581989707419084 O
0.6541441403077176 0.8742076511135127 0.861383082918732 O
0.3530433362930183 0.3575520681783485 0.3831134583525243 O
0.361543149332892 0.3521463891434491 0.87874677262015 O
0.3692087391244191 0.8659470183205443 0.3696689567214189 O
0.3634708247063559 0.8604618603797887 0.8763706527236056 O
0.8633316545052979 0.3624322513666706 0.3744017805288175 O
0.8674892631890193 0.3595201221821791 0.8719440696805507 O
0.8666590980442112 0.8670805334338357 0.3688178384613341 O
0.8693125870517919 0.8638731310224006 0.8723493149066226 O
