JVASP-14840 hcp Mg (P6_3/mmc)           
   1.0000000000000000     
     1.5907542609742746   -2.7553026484378420   -0.0000000014055594
     1.5907542755341040    2.7553026463459136   -0.0000000017079188
    -0.0000000015696506    0.0000000315309142    5.2258763176065850
  Mg            
     2
Direct
     0.3333333699196941    0.6666666218217614    0.2499999997854614
     0.6666666300803056    0.3333333781782385    0.7500000002145386

  0.00000000E+00  0.00000000E+00  0.00000000E+00
  0.00000000E+00  0.00000000E+00  0.00000000E+00
