System                                  
   1.0000000000000000     
     4.8712743873884481   -0.0229793125154004   -5.1198691638890708
    -0.7947636487524455    4.8060588177229766   -5.1198695034403379
     0.0195594964033048    0.0229491769810300    7.0670066127581705
  Li              B               F             
     4     2    10
Direct
     0.3749934645314120    0.1249818166291272    0.7499883747016182
     0.8750180794201152    0.6250064508704107    0.2500114182470477
     0.3749950525262997    0.6250064402822719    0.7499882970148942
     0.3749933986326901    0.6250049109502366    0.2500114470949531
     0.0000003052165871   -0.0000005990020457   -0.0000000283369069
     0.7499993955048243    0.2500007942616098    0.5000003682095505
     0.2500000345509797    0.7499998479778179    0.4999998957227532
     0.4999998851885061    0.5000000146418071   -0.0000000305821111
     0.0667399651610944    0.8453566145137519    0.7786166212058980
     0.5953452390538256    0.3167585260386207    0.2785877776193200
     0.0381731073535308    0.3167603633561718    0.7214139148472750
     0.0667424399851645    0.2881252383880912    0.2213840574546031
     0.6832420050652948    0.4046554970334281    0.7214131129991390
     0.1546433752103367    0.9332599637442396    0.2213831661453906
     0.7118747545641280    0.9332574256990661    0.7786158003098316
     0.6832394980352106    0.9618266946153947    0.2785858073467428

  0.00000000E+00  0.00000000E+00  0.00000000E+00
  0.00000000E+00  0.00000000E+00  0.00000000E+00
  0.00000000E+00  0.00000000E+00  0.00000000E+00
  0.00000000E+00  0.00000000E+00  0.00000000E+00
  0.00000000E+00  0.00000000E+00  0.00000000E+00
  0.00000000E+00  0.00000000E+00  0.00000000E+00
  0.00000000E+00  0.00000000E+00  0.00000000E+00
  0.00000000E+00  0.00000000E+00  0.00000000E+00
  0.00000000E+00  0.00000000E+00  0.00000000E+00
  0.00000000E+00  0.00000000E+00  0.00000000E+00
  0.00000000E+00  0.00000000E+00  0.00000000E+00
  0.00000000E+00  0.00000000E+00  0.00000000E+00
  0.00000000E+00  0.00000000E+00  0.00000000E+00
  0.00000000E+00  0.00000000E+00  0.00000000E+00
  0.00000000E+00  0.00000000E+00  0.00000000E+00
  0.00000000E+00  0.00000000E+00  0.00000000E+00
