System
1.0
4.815479256782084 -0.016081848617961 -5.0693541230277726
-0.7791097430002978 4.75206135342501 -5.069354123027774
0.0137062002665571 0.0160818486339169 6.9919241870279025
Li B F 
4 2 10 
direct
0.37499999999999994 0.125 0.75 Li
0.8749999999999999 0.6250000000000002 0.25000000000000017 Li
0.37499999999999994 0.625 0.75 Li
0.37499999999999994 0.625 0.25000000000000006 Li
0.0 0.0 0.0 B
0.75 0.25000000000000006 0.5000000000000001 B
0.25 0.75 0.5000000000000001 F
0.49999999999999994 0.5000000000000001 1.3782337205981731e-16 F
0.06741289171013443 0.8438575072480616 0.7764456155379257 F
0.5938575072480615 0.3174128917101343 0.27644561553792574 F
0.0409672761722013 0.3174128917101333 0.7235543844620742 F
0.0674128917101333 0.2909672761722014 0.22355438446207412 F
0.6825871082898652 0.40614249275193826 0.7235543844620742 F
0.1561424927519382 0.9325871082898654 0.2235543844620744 F
0.7090327238277985 0.9325871082898666 0.7764456155379258 F
0.6825871082898666 0.9590327238277988 0.2764456155379259 F
