System
1.0
5.441637380911609 0.021775709833057 8.267258784819505
2.492806581532795 4.8371185104134495 8.26724819172993
0.0355712714060299 0.0218025290524179 9.897479861893089
Li Co O 
7 8 16 
direct
0.2500005254734414 0.2500014795932154 0.2499983970196194 Li
0.2500005917970907 0.249999132772323 0.7500007394024373 Li
0.2500010160127198 0.7499991298194647 0.2499994785288184 Li
0.7499999208663624 0.2499990307798108 0.250000090109369 Li
0.7500008095540641 0.2499985137963916 0.7500000225484325 Li
0.7500003853373116 0.7499985517857801 0.2499994601139329 Li
0.7500007201097129 0.7499983252518815 0.7500007620375598 Li
-4.3527153112e-06 -7.0524464171e-06 -5.8068580935e-06 Co
5.8487799379e-06 4.103732943e-06 0.500004315458434 Co
5.490990606e-06 0.5000029706945144 5.2682443283e-06 Co
-5.3763434601e-06 0.4999936580903041 0.4999944798603473 Co
0.5000042470305202 4.0479043557e-06 5.5935335386e-06 Co
0.4999948426927148 -7.2184288201e-06 0.499995045773649 Co
0.4999945401433255 0.4999937921230622 -6.163505529e-06 Co
0.5000058895352606 0.5000042661117124 0.5000047333747252 Co
0.1297294708343861 0.1297288415494687 0.1297359243659047 O
0.1297350529558632 0.1297308685100825 0.6297432882088557 O
0.1297361572795301 0.6297348269713626 0.1297394708933157 O
0.1297292677288125 0.6297261501070105 0.6297376063986495 O
0.6297353070360876 0.12973332872042 0.1297409612483758 O
0.6297297196635677 0.1297278522449986 0.6297360150027214 O
0.6297307642537014 0.6297259340768036 0.1297362387250619 O
0.6297329624020922 0.6297335745159157 0.6297432627077746 O
0.3702724003325822 0.3702713284704067 0.3702630479316663 O
0.3702648322114375 0.3702681267884634 0.8702578535314736 O
0.3702658244041976 0.870264630723146 0.3702594130688421 O
0.3702707509097751 0.870271851502609 0.8702645200215947 O
0.870265050510516 0.3702675933156048 0.3702578339531504 O
0.8702702350367006 0.3702704797784802 0.8702653706694043 O
0.8702708392156024 0.8702733538088726 0.3702629379978579 O
0.8702667375166772 0.8702646900781167 0.8702587180612339 O
