System
1.0
10.362654199567075 0.6680397148495248 5.890074447848777
3.510047580411978 10.073208645045039 5.577995800114263
-0.2770176937874708 0.4281704396772118 11.509736570530237
Li Mn O 
5 32 64 
direct
0.4273599476505441 0.4267783222625686 0.9479230577124604 Li
0.4377866878837327 0.9307138270350462 0.4453822983842963 Li
0.9327007393879198 0.4368601473615956 0.4424232837852438 Li
0.9311912686804475 0.43775474363807 0.9357322035394693 Li
0.9382127850137679 0.9390171354698377 0.9364945130279942 Li
0.2416688654282973 0.2414495378115174 0.0067658276889952 Mn
0.2401658774188777 0.2384718922038436 0.5088750081743361 Mn
0.2516235367008813 0.7449050736650054 0.004969549869374 Mn
0.2552804609513035 0.7495323008857184 0.5019547066258405 Mn
0.7455857459591414 0.2517280520820546 0.9996375496705846 Mn
0.7507742360074706 0.2541483776098569 0.4973138922871221 Mn
0.7528342080373608 0.7551296514401576 0.9953722241258988 Mn
0.7593941458078682 0.7595924397652859 0.4955669681025343 Mn
0.247004686278863 0.9979991894324454 0.2533741765860882 Mn
0.2431066574289167 0.9946003509604158 0.7573341392174171 Mn
0.2464015993719536 0.4943483412722641 0.2591612353108819 Mn
0.2465356275864488 0.4945232390800046 0.7527582148802907 Mn
0.7531824115255624 0.0069531914397362 0.2457810016052224 Mn
0.7524635771173703 0.0069974568564823 0.7419782000532682 Mn
0.7530212742276576 0.504175389072636 0.2454565436166296 Mn
0.7525064426750991 0.5064974599880846 0.7438281659808603 Mn
0.9988069812847107 0.2474672792546281 0.2512923368419401 Mn
0.9953094457789536 0.2433488473396612 0.7543166680791323 Mn
0.0063694077212977 0.7527291193012314 0.2487831279727291 Mn
0.0060020032062963 0.7527539564205847 0.744972592419005 Mn
0.4954840209612741 0.2469685059270677 0.2556687868712121 Mn
0.4950304067949212 0.2465756154233503 0.7495186512932034 Mn
0.5037609953797323 0.7519809103026953 0.2483558222693282 Mn
0.5058569190156331 0.752133842196296 0.7471207910045696 Mn
0.2428787363644912 0.2406166998308571 0.259959359291776 Mn
0.2393720282620728 0.2389608593338703 0.7625402752756876 Mn
0.2536718496494441 0.7495648894559545 0.2488986094149152 Mn
0.2508879788052212 0.7448074006416163 0.7540559846069014 Mn
0.7508620354067732 0.2556947765970302 0.2426420917397339 Mn
0.7456877990477624 0.2521163632092913 0.7479562240242308 Mn
0.754328494920333 0.7542697662387473 0.2461677285170875 Mn
0.7582826375704907 0.7602068329282848 0.7355298800395997 Mn
0.1314619218240229 0.1287839779352427 0.3553951266299528 O
0.127802530306364 0.1257609000562888 0.8587505445297551 O
0.1398775155566282 0.6425439414401855 0.3505715533238433 O
0.1375729759805099 0.6381453918001189 0.8488566510590413 O
0.6449556696044054 0.138895267369701 0.3455469564704868 O
0.6397249576019398 0.136272891128543 0.8443916725012082 O
0.6432593479604167 0.6388824584300075 0.3462668405305347 O
0.6489144353762231 0.6478090274478546 0.8390770859660965 O
0.1238327704776844 0.3440985696763894 0.1392741913992322 O
0.1183316409923227 0.3409042467823503 0.6429775391531166 O
0.1293821595491531 0.8511336535177493 0.1352133935323912 O
0.1294638559499324 0.8509386460496571 0.6347254582911763 O
0.6417906497363887 0.3578706912073095 0.1205397466249947 O
0.6411732260777785 0.3570620062489227 0.6227579362406991 O
0.6306906284107431 0.8531712219357617 0.1320193243211578 O
0.6486172252543205 0.8664171554521465 0.615599440513341 O
0.3447889392162628 0.1222491791828454 0.1432101931684971 O
0.3416177080970524 0.1169385271661317 0.6480747009032741 O
0.3567732551567569 0.6402284521436773 0.1295386494599181 O
0.3570846320107318 0.6405745163792872 0.6310223212731416 O
0.8518421513068855 0.1300748667267917 0.1339783684516325 O
0.8517931818466729 0.1291591718981117 0.6342155733306112 O
0.8523784679474806 0.6320872666999289 0.1339317110522492 O
0.8655448022679973 0.6495340651893884 0.6194171637059823 O
0.1289111716233961 0.1311193368696666 0.1347062103781758 O
0.1261673345953648 0.1275480660319731 0.6374087049763291 O
0.135562119589963 0.6392738115544244 0.1302448522309923 O
0.1381505561119107 0.6440215150836426 0.6217326987241006 O
0.638806911187093 0.138690143784987 0.124495646743189 O
0.6432780397859813 0.1406040125411567 0.6162169303484718 O
0.6387310554127059 0.6435043037772487 0.1219890402316226 O
0.6473364638465607 0.6496685152708535 0.6134239220687246 O
0.3541722765711244 0.3540079366721339 0.1576624349298425 O
0.348626760739324 0.35107597432369 0.6613351245782615 O
0.3673373282269131 0.8670751392907012 0.1467441636903114 O
0.3593672184719692 0.8639881418872409 0.6525251956584691 O
0.8659560685053413 0.3706952126226379 0.1427721604671519 O
0.8626989008413121 0.3610086392346455 0.6482281153622501 O
0.8666360520957572 0.8683332974618437 0.1441418864757446 O
0.8687509846633437 0.8716540492191511 0.6458029250608509 O
0.3525600929760443 0.1309752343691814 0.38451036105356 O
0.3523611384083856 0.1322512061290061 0.8843391232862047 O
0.3801386108108843 0.6523006034974071 0.3622706884466284 O
0.3599860723850463 0.6375704778357811 0.8799753783728329 O
0.8722391075172603 0.155380296444906 0.3610415561405429 O
0.8695985167261004 0.1444993238737205 0.8676252648770192 O
0.8788334031148151 0.6509743311600089 0.3613237729528017 O
0.8774556570011224 0.6517756181980713 0.8630815794774109 O
0.133489839759898 0.3514517845751311 0.3807886368779231 O
0.1317806865991527 0.3513020499707563 0.8821603352836747 O
0.1550105454296187 0.8711194158343974 0.3624145532682459 O
0.1438068961572106 0.8691027617865426 0.8687976544371231 O
0.6538709884858511 0.380433649271767 0.3542646049923119 O
0.6383011707134689 0.3608360904767542 0.8714815183486415 O
0.651250342648872 0.879108626689185 0.3574271155387653 O
0.6497812923499655 0.8796537897024406 0.8591917293660983 O
0.351709375287292 0.3481877902244204 0.3888396219471392 O
0.3546385874386282 0.3532722648491481 0.8841543088834014 O
0.3702670178327051 0.8645554422808773 0.3716444228807194 O
0.3605603745169511 0.8619123248700156 0.8784355995687935 O
0.8684100542523584 0.3674028517982604 0.3687948537127982 O
0.8648325661944192 0.3602555992220868 0.8728076749263006 O
0.8715430760993432 0.869478079102821 0.3636808745059761 O
0.8672403821467515 0.8667346151181852 0.8716105529122228 O
