System                                  
   1.0000000000000000     
     9.8973179505287323   -0.0029271268046785   -0.0007080970859342
     0.0041209076868966   12.6993594647412582   -0.0001603373987241
     0.0006672815599464    0.0001263835220560    9.3698092335868761
  Li              Fe              P               O             
     8    16    16    64
Direct
     0.2407314354492982    0.1249550015208844    0.1686719370369860
     0.7369049299551992    0.1220308169248629    0.1775855438180969
     0.4862577461635783    0.8739485430820824    0.3161847469798525
     0.9846076239773628    0.8727163581715986    0.3216137689132569
     0.0056894354700476    0.6251562550152736    0.6767638117254398
     0.5108642815479255    0.6253339594452981    0.6779827501330364
     0.2698370341949000    0.3750520750440682    0.8391353054316388
     0.7675457898918471    0.3744495108879431    0.8309768424458984
    -0.0000198914535494   -0.0055428067465874    0.9865741702628954
     0.9983640262100830    0.5047468165383596    0.0111914084474547
     0.5009138171084473    0.0003204859131542    0.9865410189742575
     0.5006873968269127    0.5003594535694457    0.0119620107263457
     0.0009488612109863    0.2528749548114907    0.0026657448384420
     0.9996996947618098    0.7457402521713932    0.0011045416755767
     0.5007075196448426    0.2447883045111149   -0.0002006721803003
     0.4992783646904821    0.7533258207339164    0.9949157020342300
     0.2580713189054392   -0.0038961235854827    0.5113784679755469
     0.2305326005641481    0.5122266886101817    0.4786246097247940
     0.7588428119067550    0.9955643510644306    0.5088220930347215
     0.7338295321853390    0.5064795150930786    0.4849180934755726
     0.2670533562545101    0.2566098989678292    0.5128826919978949
     0.2474656402086414    0.7525115114698163    0.4983791163911727
     0.7626865249424707    0.2564209879382962    0.5039217349626680
     0.7433829907035540    0.7465012527641717    0.4978734072702982
     0.2588374070139106    0.1283306861290755    0.8237217393024746
     0.2659647763810200    0.6182074668294263    0.8222285684344774
     0.7669521754293173    0.1293566705628370    0.8190735066347485
     0.7643801409131108    0.6167494469387863    0.8288917719024257
     0.0221731257750530    0.3709749918435594    0.6733275139519097
     0.0144169009115382    0.8743059353620418    0.6756163624695416
     0.5199958722994910    0.3785910310549129    0.6767578688396086
     0.5136276898019179    0.8717507896133173    0.6722161941282715
     0.4875516387744451    0.1219124003558641    0.3344832173334624
     0.4781809480921611    0.6302742645898621    0.3178439599090619
     0.9897730769912765    0.1224144262448584    0.3256773688913168
     0.9780090939623773    0.6288273541740734    0.3247366662804603
     0.2379214154897577    0.3752415350326584    0.1808579459543476
     0.2306410587409045    0.8834498645671490    0.1741555426632446
     0.7380136121483215    0.3602549099915963    0.1760356738382661
     0.7326386489450399    0.8870441334999170    0.1727947885202359
     0.1068338731323476    0.1293479404251047    0.8843698452292570
     0.1135064672145209    0.6167256448249592    0.8612926885712732
     0.6187432849603262    0.1288368104932737    0.8686691977573003
     0.6098976851367247    0.6117496707054682    0.8741513718694570
     0.0498003469963813    0.3664920062136197    0.8408277712746827
     0.0242992831222254    0.8805668862204752    0.8433622093109000
     0.5431586529159106    0.3766376135252146    0.8443647001629370
     0.5217750646239739    0.8773607593568927    0.8360504448541911
     0.2714042285054885    0.1261498854480062    0.6521205238240115
     0.2883405050804133    0.6143102092193354    0.6517914453134395
     0.7844468940860032    0.1262218187926855    0.6488442370914110
     0.7830559610878651    0.6224161819541750    0.6612984336502792
     0.3657239354188889    0.3645309998388102    0.6380797270202373
     0.3640619661509833    0.8817881237197592    0.6109757536601887
     0.8684875038783548    0.3632044835459662    0.6358946126694227
     0.8656023845379119    0.8831469406520019    0.6173513278041307
     0.0982245372487689    0.2792860721082680    0.6046390649572979
     0.0758826590770513    0.7685327540012521    0.6281212682549210
     0.6040846446386822    0.2878295683691627    0.6141061042912734
     0.5697696270763529    0.7654518975507696    0.6185314045761049
     0.0825160841564087    0.4760488009405831    0.6180686305508686
     0.0946834352199840    0.9669718601765044    0.6116526962358586
     0.5710052207885304    0.4839966199081440    0.6186551801244187
     0.5968104534324457    0.9632361412925816    0.6069562778043469
     0.4205563839357707    0.0195475960285041    0.3914220900195108
     0.3973591773676241    0.5380482357365461    0.3847393098998871
     0.9205158420487916    0.0202266389690289    0.3788953618030336
     0.9077124116051232    0.5333015973424600    0.3885692333708339
     0.1679697621363323    0.2715943038920060    0.1254203005079128
     0.1587011225962975    0.7862314261315726    0.1199972305106513
     0.6719153508524723    0.2572206377732901    0.1247319776085113
     0.6573584545908717    0.7906230230902193    0.1199899237028730
     0.1435220395115742    0.1223703720487231    0.3633181507319871
     0.1299322904988029    0.6260629314289408    0.3868858962219890
     0.6426843074411336    0.1223205331383484    0.3746016047840313
     0.6246822427712463    0.6272393940072480    0.3755782451878862
     0.2299264291205477    0.3729319474352042    0.3525558130955534
     0.2046676818128148    0.8881562426203200    0.3440187852031986
     0.7296559691433839    0.3651386649722597    0.3439613259731741
     0.7138445635217326    0.8867619699498660    0.3436711836592865
     0.4549138393876514    0.1271745588891320    0.1711792889206160
     0.4716673479494818    0.6180314392562901    0.1498313677803129
     0.9605997841155927    0.1285039216127658    0.1562074677560926
     0.9740158337173087    0.6265680933805386    0.1603800962926712
     0.3861144811712305    0.3761681075235733    0.1197722486504843
     0.3825905049304761    0.8869143332649055    0.1357601180125674
     0.8875753149099006    0.3617619615178451    0.1155424324917246
     0.8870277684164458    0.8884974516686401    0.1295095911490666
     0.3256319026908727    0.2312846690001038    0.8755931394648382
     0.3389362425235914    0.7157460238823928    0.8745827591990856
     0.8388436536780870    0.2310076640545907    0.8756757688703133
     0.8331659462650715    0.7132720878754114    0.8916818303613508
     0.1618956492357219    0.4708270615864266    0.1287548437862773
     0.1587732023891748    0.9846864493602704    0.1138546826565066
     0.6613745230465372    0.4553179769012861    0.1138658815940393
     0.6667231826987692    0.9897844888288286    0.1188044825866937
     0.4191895120288124    0.2170595127863287    0.4058396729325822
     0.4107246486475750    0.7354647344039641    0.3605159333038428
     0.9165458812627160    0.2166026563382626    0.3920090779855095
     0.9172531255787142    0.7343172713675175    0.3781114344017919
     0.3282817925693063    0.0312560600426360    0.8808132699180522
     0.3374721751343268    0.5171190896063834    0.8830073422212200
     0.8428769708727641    0.0344962640488565    0.8821723405923746
     0.8342380770470157    0.5131154915811518    0.8778349704306831

  0.00000000E+00  0.00000000E+00  0.00000000E+00
  0.00000000E+00  0.00000000E+00  0.00000000E+00
  0.00000000E+00  0.00000000E+00  0.00000000E+00
  0.00000000E+00  0.00000000E+00  0.00000000E+00
  0.00000000E+00  0.00000000E+00  0.00000000E+00
  0.00000000E+00  0.00000000E+00  0.00000000E+00
  0.00000000E+00  0.00000000E+00  0.00000000E+00
  0.00000000E+00  0.00000000E+00  0.00000000E+00
  0.00000000E+00  0.00000000E+00  0.00000000E+00
  0.00000000E+00  0.00000000E+00  0.00000000E+00
  0.00000000E+00  0.00000000E+00  0.00000000E+00
  0.00000000E+00  0.00000000E+00  0.00000000E+00
  0.00000000E+00  0.00000000E+00  0.00000000E+00
  0.00000000E+00  0.00000000E+00  0.00000000E+00
  0.00000000E+00  0.00000000E+00  0.00000000E+00
  0.00000000E+00  0.00000000E+00  0.00000000E+00
  0.00000000E+00  0.00000000E+00  0.00000000E+00
  0.00000000E+00  0.00000000E+00  0.00000000E+00
  0.00000000E+00  0.00000000E+00  0.00000000E+00
  0.00000000E+00  0.00000000E+00  0.00000000E+00
  0.00000000E+00  0.00000000E+00  0.00000000E+00
  0.00000000E+00  0.00000000E+00  0.00000000E+00
  0.00000000E+00  0.00000000E+00  0.00000000E+00
  0.00000000E+00  0.00000000E+00  0.00000000E+00
  0.00000000E+00  0.00000000E+00  0.00000000E+00
  0.00000000E+00  0.00000000E+00  0.00000000E+00
  0.00000000E+00  0.00000000E+00  0.00000000E+00
  0.00000000E+00  0.00000000E+00  0.00000000E+00
  0.00000000E+00  0.00000000E+00  0.00000000E+00
  0.00000000E+00  0.00000000E+00  0.00000000E+00
  0.00000000E+00  0.00000000E+00  0.00000000E+00
  0.00000000E+00  0.00000000E+00  0.00000000E+00
  0.00000000E+00  0.00000000E+00  0.00000000E+00
  0.00000000E+00  0.00000000E+00  0.00000000E+00
  0.00000000E+00  0.00000000E+00  0.00000000E+00
  0.00000000E+00  0.00000000E+00  0.00000000E+00
  0.00000000E+00  0.00000000E+00  0.00000000E+00
  0.00000000E+00  0.00000000E+00  0.00000000E+00
  0.00000000E+00  0.00000000E+00  0.00000000E+00
  0.00000000E+00  0.00000000E+00  0.00000000E+00
  0.00000000E+00  0.00000000E+00  0.00000000E+00
  0.00000000E+00  0.00000000E+00  0.00000000E+00
  0.00000000E+00  0.00000000E+00  0.00000000E+00
  0.00000000E+00  0.00000000E+00  0.00000000E+00
  0.00000000E+00  0.00000000E+00  0.00000000E+00
  0.00000000E+00  0.00000000E+00  0.00000000E+00
  0.00000000E+00  0.00000000E+00  0.00000000E+00
  0.00000000E+00  0.00000000E+00  0.00000000E+00
  0.00000000E+00  0.00000000E+00  0.00000000E+00
  0.00000000E+00  0.00000000E+00  0.00000000E+00
  0.00000000E+00  0.00000000E+00  0.00000000E+00
  0.00000000E+00  0.00000000E+00  0.00000000E+00
  0.00000000E+00  0.00000000E+00  0.00000000E+00
  0.00000000E+00  0.00000000E+00  0.00000000E+00
  0.00000000E+00  0.00000000E+00  0.00000000E+00
  0.00000000E+00  0.00000000E+00  0.00000000E+00
  0.00000000E+00  0.00000000E+00  0.00000000E+00
  0.00000000E+00  0.00000000E+00  0.00000000E+00
  0.00000000E+00  0.00000000E+00  0.00000000E+00
  0.00000000E+00  0.00000000E+00  0.00000000E+00
  0.00000000E+00  0.00000000E+00  0.00000000E+00
  0.00000000E+00  0.00000000E+00  0.00000000E+00
  0.00000000E+00  0.00000000E+00  0.00000000E+00
  0.00000000E+00  0.00000000E+00  0.00000000E+00
  0.00000000E+00  0.00000000E+00  0.00000000E+00
  0.00000000E+00  0.00000000E+00  0.00000000E+00
  0.00000000E+00  0.00000000E+00  0.00000000E+00
  0.00000000E+00  0.00000000E+00  0.00000000E+00
  0.00000000E+00  0.00000000E+00  0.00000000E+00
  0.00000000E+00  0.00000000E+00  0.00000000E+00
  0.00000000E+00  0.00000000E+00  0.00000000E+00
  0.00000000E+00  0.00000000E+00  0.00000000E+00
  0.00000000E+00  0.00000000E+00  0.00000000E+00
  0.00000000E+00  0.00000000E+00  0.00000000E+00
  0.00000000E+00  0.00000000E+00  0.00000000E+00
  0.00000000E+00  0.00000000E+00  0.00000000E+00
  0.00000000E+00  0.00000000E+00  0.00000000E+00
  0.00000000E+00  0.00000000E+00  0.00000000E+00
  0.00000000E+00  0.00000000E+00  0.00000000E+00
  0.00000000E+00  0.00000000E+00  0.00000000E+00
  0.00000000E+00  0.00000000E+00  0.00000000E+00
  0.00000000E+00  0.00000000E+00  0.00000000E+00
  0.00000000E+00  0.00000000E+00  0.00000000E+00
  0.00000000E+00  0.00000000E+00  0.00000000E+00
  0.00000000E+00  0.00000000E+00  0.00000000E+00
  0.00000000E+00  0.00000000E+00  0.00000000E+00
  0.00000000E+00  0.00000000E+00  0.00000000E+00
  0.00000000E+00  0.00000000E+00  0.00000000E+00
  0.00000000E+00  0.00000000E+00  0.00000000E+00
  0.00000000E+00  0.00000000E+00  0.00000000E+00
  0.00000000E+00  0.00000000E+00  0.00000000E+00
  0.00000000E+00  0.00000000E+00  0.00000000E+00
  0.00000000E+00  0.00000000E+00  0.00000000E+00
  0.00000000E+00  0.00000000E+00  0.00000000E+00
  0.00000000E+00  0.00000000E+00  0.00000000E+00
  0.00000000E+00  0.00000000E+00  0.00000000E+00
  0.00000000E+00  0.00000000E+00  0.00000000E+00
  0.00000000E+00  0.00000000E+00  0.00000000E+00
  0.00000000E+00  0.00000000E+00  0.00000000E+00
  0.00000000E+00  0.00000000E+00  0.00000000E+00
  0.00000000E+00  0.00000000E+00  0.00000000E+00
  0.00000000E+00  0.00000000E+00  0.00000000E+00
  0.00000000E+00  0.00000000E+00  0.00000000E+00
  0.00000000E+00  0.00000000E+00  0.00000000E+00
