System
1.0
9.82607 0.31674 5.9129
3.07434 9.58387 5.51431
-0.21714 0.34462 11.46543
Li Mn O 
16 32 64 
direct
0.062490308729500926 0.06250935100093552 0.0624918524834467 Li
0.06249030872950092 0.06250935100093552 0.5624918524834467 Li
0.06249030872950092 0.5625093510009356 0.06249185248344665 Li
0.06249030872950093 0.5625093510009355 0.5624918524834467 Li
0.5624903087295009 0.0625093510009355 0.062491852483446735 Li
0.5624903087295009 0.0625093510009355 0.5624918524834467 Li
0.5624903087295009 0.5625093510009355 0.062491852483446686 Li
0.5624903087295009 0.5625093510009356 0.5624918524834468 Li
0.4375099706356203 0.4374911653367542 0.43750758466100254 Li
0.43750997063562025 0.43749116533675425 0.9375075846610025 Li
0.4375099706356203 0.9374911653367541 0.4375075846610027 Li
0.43750997063562025 0.9374911653367541 0.9375075846610025 Li
0.9375099706356205 0.4374911653367542 0.4375075846610026 Li
0.9375099706356202 0.4374911653367542 0.9375075846610026 Li
0.9375099706356202 0.9374911653367543 0.4375075846610025 Li
0.9375099706356202 0.9374911653367541 0.9375075846610026 Li
0.25000033875887423 0.24999966575499857 1.3465277233283628e-08 Mn
0.2500003387588742 0.24999966575499855 0.5000000134652772 Mn
0.2500003387588742 0.7499996657549984 1.3465277231056265e-08 Mn
0.2500003387588742 0.7499996657549985 0.5000000134652772 Mn
0.7500003387588743 0.24999966575499855 1.3465277129048817e-08 Mn
0.7500003387588743 0.24999966575499857 0.5000000134652771 Mn
0.7500003387588743 0.7499996657549985 1.3465277287588956e-08 Mn
0.7500003387588742 0.7499996657549985 0.5000000134652772 Mn
0.2500002322403554 1.2526771927263234e-07 0.2499992478146526 Mn
0.2500002322403554 1.252677192711985e-07 0.7499992478146525 Mn
0.2500002322403554 0.5000001252677192 0.24999924781465258 Mn
0.2500002322403554 0.5000001252677193 0.7499992478146524 Mn
0.7500002322403555 1.252677192717272e-07 0.24999924781465255 Mn
0.7500002322403554 1.2526771927143175e-07 0.7499992478146525 Mn
0.7500002322403554 0.5000001252677193 0.24999924781465258 Mn
0.7500002322403553 0.5000001252677193 0.7499992478146525 Mn
-2.6033588654838805e-07 0.2499999296594808 0.24999977258045672 Mn
-2.603358865495751e-07 0.24999992965948076 0.7499997725804567 Mn
-2.6033588658505055e-07 0.7499999296594808 0.24999977258045675 Mn
-2.603358865437274e-07 0.7499999296594808 0.7499997725804568 Mn
0.4999997396641135 0.24999992965948084 0.2499997725804567 Mn
0.49999973966411343 0.2499999296594808 0.7499997725804567 Mn
0.4999997396641135 0.7499999296594807 0.24999977258045664 Mn
0.49999973966411343 0.7499999296594807 0.7499997725804568 Mn
0.2500005923871082 0.2500000614651664 0.24999983108365162 Mn
0.25000059238710814 0.25000006146516635 0.7499998310836515 Mn
0.25000059238710814 0.7500000614651664 0.2499998310836516 Mn
0.2500005923871082 0.7500000614651663 0.7499998310836516 Mn
0.7500005923871081 0.2500000614651664 0.2499998310836516 Mn
0.7500005923871081 0.2500000614651664 0.7499998310836516 Mn
0.7500005923871081 0.7500000614651664 0.2499998310836516 Mn
0.7500005923871081 0.7500000614651663 0.7499998310836518 Mn
0.13122113269463845 0.13111106500473788 0.3565448462918601 O
0.13122113269463845 0.13111106500473788 0.8565448462918601 O
0.13122113269463845 0.6311110650047378 0.35654484629186006 O
0.1312211326946384 0.6311110650047379 0.8565448462918601 O
0.6312211326946384 0.13111106500473788 0.35654484629186006 O
0.6312211326946385 0.13111106500473788 0.8565448462918602 O
0.6312211326946385 0.6311110650047379 0.35654484629186 O
0.6312211326946384 0.6311110650047378 0.8565448462918602 O
0.1311213731600547 0.3565482320275005 0.13110945694243506 O
0.13112137316005473 0.3565482320275006 0.631109456942435 O
0.13112137316005476 0.8565482320275005 0.13110945694243503 O
0.13112137316005473 0.8565482320275004 0.6311094569424351 O
0.6311213731600547 0.3565482320275006 0.13110945694243503 O
0.6311213731600548 0.3565482320275005 0.6311094569424351 O
0.6311213731600548 0.8565482320275004 0.131109456942435 O
0.6311213731600547 0.8565482320275006 0.6311094569424353 O
0.35654476820716297 0.13112260100228865 0.13122240160874762 O
0.35654476820716297 0.13112260100228865 0.6312224016087475 O
0.35654476820716297 0.6311226010022886 0.13122240160874768 O
0.356544768207163 0.6311226010022887 0.6312224016087477 O
0.856544768207163 0.13112260100228865 0.1312224016087477 O
0.856544768207163 0.13112260100228865 0.6312224016087477 O
0.856544768207163 0.6311226010022886 0.1312224016087477 O
0.856544768207163 0.6311226010022886 0.6312224016087477 O
0.13111052646109542 0.13122173002492335 0.1311206396529914 O
0.13111052646109542 0.13122173002492335 0.6311206396529914 O
0.1311105264610954 0.6312217300249233 0.1311206396529914 O
0.13111052646109533 0.6312217300249233 0.6311206396529914 O
0.6311105264610954 0.13122173002492335 0.13112063965299137 O
0.6311105264610953 0.13122173002492335 0.6311206396529914 O
0.6311105264610953 0.6312217300249232 0.1311206396529915 O
0.6311105264610954 0.6312217300249234 0.6311206396529915 O
0.36877908250449043 0.36888939916847796 0.1434548787885029 O
0.3687790825044904 0.368889399168478 0.6434548787885029 O
0.3687790825044904 0.868889399168478 0.14345487878850288 O
0.3687790825044905 0.8688893991684778 0.6434548787885029 O
0.8687790825044904 0.368889399168478 0.1434548787885029 O
0.8687790825044904 0.36888939916847796 0.6434548787885029 O
0.8687790825044904 0.8688893991684778 0.1434548787885028 O
0.8687790825044905 0.8688893991684781 0.643454878788503 O
0.36887879586355793 0.14345274955034412 0.3688899118987062 O
0.368878795863558 0.14345274955034412 0.8688899118987062 O
0.3688787958635579 0.643452749550344 0.3688899118987061 O
0.368878795863558 0.6434527495503441 0.8688899118987061 O
0.8688787958635581 0.1434527495503441 0.3688899118987063 O
0.868878795863558 0.1434527495503441 0.8688899118987061 O
0.8688787958635579 0.643452749550344 0.3688899118987062 O
0.868878795863558 0.643452749550344 0.8688899118987063 O
0.14345533141655298 0.3688779531628985 0.36877727305209657 O
0.143455331416553 0.3688779531628985 0.8687772730520965 O
0.14345533141655292 0.8688779531628986 0.36877727305209657 O
0.14345533141655295 0.8688779531628985 0.8687772730520966 O
0.6434553314165531 0.3688779531628985 0.3687772730520965 O
0.6434553314165531 0.3688779531628985 0.8687772730520965 O
0.6434553314165531 0.8688779531628983 0.3687772730520965 O
0.643455331416553 0.8688779531628985 0.8687772730520967 O
0.3688899840458481 0.36877889023667765 0.36887902287332996 O
0.3688899840458481 0.3687788902366776 0.86887902287333 O
0.36888998404584805 0.8687788902366775 0.3688790228733301 O
0.3688899840458481 0.8687788902366776 0.86887902287333 O
0.8688899840458484 0.3687788902366776 0.36887902287332996 O
0.8688899840458483 0.36877889023667765 0.8688790228733299 O
0.8688899840458483 0.8687788902366775 0.36887902287332996 O
0.8688899840458482 0.8687788902366774 0.86887902287333 O
