System                                  
   1.0000000000000000     
    10.2852317212148616   -0.0002002927936414   -5.4002187051931321
    -2.8351896634306994    9.8867470578824275   -5.4002254834420542
     0.0099513128610022    0.0132069081834311   12.5149077806612770
  Mg              Mn              O             
    13    32    64
Direct
     0.1890055222651891    0.3115126875758331    0.3802877347650293
     0.1894927728975131    0.3143946465645887    0.8757466837949751
     0.1885999925066494    0.8137430596772502    0.3742376590433423
     0.1850973095249155    0.8127155650391010    0.8790305294253312
     0.6885753576948596    0.3169967481397661    0.3745821156743374
     0.6812312628141374    0.3086695178759178    0.8696967258142828
     0.6836208612382721    0.8060744667374894    0.3709396141104969
     0.6923636204601684    0.8140135621059864    0.8754410749804936
     0.3087732994442536    0.1855621656207058    0.1212992345477804
     0.3156800269704709    0.6888405109417574    0.6265904210974850
     0.8146800516230031    0.1896964564765718    0.1249884303701267
     0.8122215208250858    0.1890868696205842    0.6234399586787580
     0.8143143920832737    0.6874351606451535    0.1286876729308375
     0.9953520319774180   -0.0010465651756068    0.2457328735381876
     0.9971807896096500    0.9990362736564491    0.7486018870172637
     0.0027850361407864    0.5002826306372399    0.2534740230245604
     1.0057919983291681    0.5073386127223071    0.7610037840375188
     0.4983993312478547   -0.0011563840199042    0.2478361557946090
     0.5021745437189427    0.0022379937596145    0.7526432034232002
     0.4891577247177717    0.4963851835842781    0.2404558592349606
     0.5021001441625966    0.5011909541246735    0.7536411210563122
     0.9968339122305169    0.2492966059921285    0.9965279142637971
     0.9995396204236827    0.2495127883061659    0.4973154485842901
     0.0059566820688970    0.7486887320015859    0.0095401835287415
     1.0004543812488274    0.7486277170033273    0.5014207379639500
     0.5032102845419515    0.2496824047903700    1.0041970560551949
     0.4976031891604037    0.2484487428044608    0.4964120066893487
     0.5010269542599235    0.7506091256707973    1.0021659850003950
     0.4963339573298062    0.7447077946344796    0.4889787933806610
     0.2524377880017531   -0.0019432718030391    0.2473405869961657
     0.2517686095632301    0.0038950344464610    0.7557955007191989
     0.2475560838154957    0.4979128672449434    0.2469127200497925
     0.2547358371261134    0.5041751856506416    0.7601081628053141
     0.7484486422377287    0.0005618827096619    0.2499995047762946
     0.7502536555046927    0.9983256307616202    0.7472636398355699
     0.7509899362192256    0.4979557023297904    0.2477007801457478
     0.7533185794177769    0.5053790936603850    0.7558362498840439
     0.0002224442244199    0.0033210407539657    0.0023336037585125
     0.9980101761158119    0.9959784315778552    0.4941940703235895
     1.0010663840286413    0.5006176564587025    1.0031057947729443
     1.0010802426268826    0.5030001068778969    0.5027230623217422
     0.5005584447210758    0.9985098637002282    0.9999965414203708
     0.4939977059972390    0.9945610572819239    0.4898507636566681
     0.5007444498378146    0.5051700609097973    1.0026664014712232
     0.4996586028214417    0.4974672315955750    0.4942191964440895
     0.3738695616903300    0.3842437595097053    0.2451528959975834
     0.3992651302017785    0.4116590580133881    0.7982472394477308
     0.3751227747334506    0.8956428051687059    0.2524855914216108
     0.3781561552293990    0.8914628868668144    0.7552420181057863
     0.8767081125677318    0.3870232320580946    0.2515433825581915
     0.8755847695841390    0.3919999737704402    0.7529388205710993
     0.8732807970530454    0.8869832132726685    0.2455631598806557
     0.8852415092398566    0.9039008515370357    0.7715881535533854
     0.3633523443635633    0.1010359049855159    0.4517608905533162
     0.3914221047697881    0.1277758853024825    0.0043925503330871
     0.3891537669775578    0.6226431428787457    0.4971709371106222
     0.3931900611320616    0.6226712371604843   -0.0024948801698595
     0.8861114353196002    0.1229431022500147    0.4947479592210463
     0.8854142719023094    0.1251673515807072   -0.0016161695752103
     0.8823746550094210    0.6137140364109891    0.4784935822273709
     0.8891577890570775    0.6286832769677686    0.0048588632783770
     0.0854879320467042    0.0984472607315159    0.4484634125678642
     0.1112583363525905    0.1253070550781014   -0.0006685523656510
     0.1149463615575239    0.6238640351391693    0.4983235356692347
     0.1060613159047616    0.6250775881396375    0.0002403081539937
     0.6095311470365964    0.1246866227817714    0.4960023993445824
     0.6139164598058521    0.1281099935241286    0.0037015998967380
     0.5867593819988011    0.5964346986375957    0.4445165754792241
     0.6149746912760804    0.6232788032882550    0.0027681965333053
     0.1206504125985236    0.1078219498685891    0.2459739418521212
     0.1241457703380031    0.1120822741734084    0.7462818086712794
     0.1226762612451820    0.6113674474407788    0.2479279428249202
     0.1260294785245052    0.6127059035576943    0.7510963622839223
     0.6238207982121905    0.1127114011960611    0.2477191062168056
     0.6195495606765495    0.1088628571970922    0.7419698851257039
     0.6100395152936142    0.6002602696925421    0.2236447742848477
     0.6248384352852642    0.6123794661919589    0.7475538569189691
     0.1247345847299539    0.3845433479028582    0.2489907990327623
     0.1226028480296740    0.3857278694882165    0.7469600254618293
     0.1139837745830492    0.8758679095103628    0.2299257504287207
     0.1255740881532193    0.8872053118753812    0.7504663457149154
     0.6110230873717221    0.3710691923735841    0.2229280029672307
     0.6227193440540442    0.3854447228962801    0.7446272239058751
     0.6249131305144153    0.8854779358236324    0.2468929049933187
     0.6225771078757352    0.8842393955539478    0.7453544482321917
     0.1135519192408487    0.3747477228640083    0.0021783600084089
     0.1168501690492734    0.3774946295064514    0.5079222381813681
     0.1265922989010636    0.8864266316680723    0.0263640265996815
     0.1158211728735109    0.8779491176149223    0.5037644144978555
     0.6119123336023927    0.3747397544862603    0.0040237104322530
     0.6150365492629495    0.3773610483630027    0.5026549594347379
     0.6150631659362168    0.8762415912926802    0.0024259164577452
     0.6115692698759985    0.8748574114050337    0.4988850271155986
     0.3704940261904290    0.1121585206357539    0.2472518588881936
     0.3999739987191060    0.1371042573978386    0.8014598029965490
     0.3748601508970045    0.6057747556590185    0.2497515953451883
     0.3787433611029555    0.6136118876493332    0.7540377044505242
     0.8743016039960603    0.1101731946878447    0.2462342206895884
     0.8755425021820900    0.1166217912951295    0.7517102612205223
     0.8760158802675816    0.6119752651491199    0.2507287948893774
     0.9020099977093243    0.6421899584151840    0.8054936416490196
     0.3959363459145105    0.3841075764400348    0.0200066405049958
     0.3909055446715745    0.3780547940832841    0.5053603181439653
     0.3885670104730755    0.8780208957622820    0.0030338650112210
     0.3887422106109233    0.8755069488773457    0.5029298046481212
     0.8855568493993569    0.3757304381651235    0.0009533908116684
     0.8888888671729257    0.3772286283905354    0.5046065568759734
     0.8980608930011991    0.8880712171945212    0.0270574798676141
     0.8866842532838831    0.8750985718205111    0.4995447381922030

  0.00000000E+00  0.00000000E+00  0.00000000E+00
  0.00000000E+00  0.00000000E+00  0.00000000E+00
  0.00000000E+00  0.00000000E+00  0.00000000E+00
  0.00000000E+00  0.00000000E+00  0.00000000E+00
  0.00000000E+00  0.00000000E+00  0.00000000E+00
  0.00000000E+00  0.00000000E+00  0.00000000E+00
  0.00000000E+00  0.00000000E+00  0.00000000E+00
  0.00000000E+00  0.00000000E+00  0.00000000E+00
  0.00000000E+00  0.00000000E+00  0.00000000E+00
  0.00000000E+00  0.00000000E+00  0.00000000E+00
  0.00000000E+00  0.00000000E+00  0.00000000E+00
  0.00000000E+00  0.00000000E+00  0.00000000E+00
  0.00000000E+00  0.00000000E+00  0.00000000E+00
  0.00000000E+00  0.00000000E+00  0.00000000E+00
  0.00000000E+00  0.00000000E+00  0.00000000E+00
  0.00000000E+00  0.00000000E+00  0.00000000E+00
  0.00000000E+00  0.00000000E+00  0.00000000E+00
  0.00000000E+00  0.00000000E+00  0.00000000E+00
  0.00000000E+00  0.00000000E+00  0.00000000E+00
  0.00000000E+00  0.00000000E+00  0.00000000E+00
  0.00000000E+00  0.00000000E+00  0.00000000E+00
  0.00000000E+00  0.00000000E+00  0.00000000E+00
  0.00000000E+00  0.00000000E+00  0.00000000E+00
  0.00000000E+00  0.00000000E+00  0.00000000E+00
  0.00000000E+00  0.00000000E+00  0.00000000E+00
  0.00000000E+00  0.00000000E+00  0.00000000E+00
  0.00000000E+00  0.00000000E+00  0.00000000E+00
  0.00000000E+00  0.00000000E+00  0.00000000E+00
  0.00000000E+00  0.00000000E+00  0.00000000E+00
  0.00000000E+00  0.00000000E+00  0.00000000E+00
  0.00000000E+00  0.00000000E+00  0.00000000E+00
  0.00000000E+00  0.00000000E+00  0.00000000E+00
  0.00000000E+00  0.00000000E+00  0.00000000E+00
  0.00000000E+00  0.00000000E+00  0.00000000E+00
  0.00000000E+00  0.00000000E+00  0.00000000E+00
  0.00000000E+00  0.00000000E+00  0.00000000E+00
  0.00000000E+00  0.00000000E+00  0.00000000E+00
  0.00000000E+00  0.00000000E+00  0.00000000E+00
  0.00000000E+00  0.00000000E+00  0.00000000E+00
  0.00000000E+00  0.00000000E+00  0.00000000E+00
  0.00000000E+00  0.00000000E+00  0.00000000E+00
  0.00000000E+00  0.00000000E+00  0.00000000E+00
  0.00000000E+00  0.00000000E+00  0.00000000E+00
  0.00000000E+00  0.00000000E+00  0.00000000E+00
  0.00000000E+00  0.00000000E+00  0.00000000E+00
  0.00000000E+00  0.00000000E+00  0.00000000E+00
  0.00000000E+00  0.00000000E+00  0.00000000E+00
  0.00000000E+00  0.00000000E+00  0.00000000E+00
  0.00000000E+00  0.00000000E+00  0.00000000E+00
  0.00000000E+00  0.00000000E+00  0.00000000E+00
  0.00000000E+00  0.00000000E+00  0.00000000E+00
  0.00000000E+00  0.00000000E+00  0.00000000E+00
  0.00000000E+00  0.00000000E+00  0.00000000E+00
  0.00000000E+00  0.00000000E+00  0.00000000E+00
  0.00000000E+00  0.00000000E+00  0.00000000E+00
  0.00000000E+00  0.00000000E+00  0.00000000E+00
  0.00000000E+00  0.00000000E+00  0.00000000E+00
  0.00000000E+00  0.00000000E+00  0.00000000E+00
  0.00000000E+00  0.00000000E+00  0.00000000E+00
  0.00000000E+00  0.00000000E+00  0.00000000E+00
  0.00000000E+00  0.00000000E+00  0.00000000E+00
  0.00000000E+00  0.00000000E+00  0.00000000E+00
  0.00000000E+00  0.00000000E+00  0.00000000E+00
  0.00000000E+00  0.00000000E+00  0.00000000E+00
  0.00000000E+00  0.00000000E+00  0.00000000E+00
  0.00000000E+00  0.00000000E+00  0.00000000E+00
  0.00000000E+00  0.00000000E+00  0.00000000E+00
  0.00000000E+00  0.00000000E+00  0.00000000E+00
  0.00000000E+00  0.00000000E+00  0.00000000E+00
  0.00000000E+00  0.00000000E+00  0.00000000E+00
  0.00000000E+00  0.00000000E+00  0.00000000E+00
  0.00000000E+00  0.00000000E+00  0.00000000E+00
  0.00000000E+00  0.00000000E+00  0.00000000E+00
  0.00000000E+00  0.00000000E+00  0.00000000E+00
  0.00000000E+00  0.00000000E+00  0.00000000E+00
  0.00000000E+00  0.00000000E+00  0.00000000E+00
  0.00000000E+00  0.00000000E+00  0.00000000E+00
  0.00000000E+00  0.00000000E+00  0.00000000E+00
  0.00000000E+00  0.00000000E+00  0.00000000E+00
  0.00000000E+00  0.00000000E+00  0.00000000E+00
  0.00000000E+00  0.00000000E+00  0.00000000E+00
  0.00000000E+00  0.00000000E+00  0.00000000E+00
  0.00000000E+00  0.00000000E+00  0.00000000E+00
  0.00000000E+00  0.00000000E+00  0.00000000E+00
  0.00000000E+00  0.00000000E+00  0.00000000E+00
  0.00000000E+00  0.00000000E+00  0.00000000E+00
  0.00000000E+00  0.00000000E+00  0.00000000E+00
  0.00000000E+00  0.00000000E+00  0.00000000E+00
  0.00000000E+00  0.00000000E+00  0.00000000E+00
  0.00000000E+00  0.00000000E+00  0.00000000E+00
  0.00000000E+00  0.00000000E+00  0.00000000E+00
  0.00000000E+00  0.00000000E+00  0.00000000E+00
  0.00000000E+00  0.00000000E+00  0.00000000E+00
  0.00000000E+00  0.00000000E+00  0.00000000E+00
  0.00000000E+00  0.00000000E+00  0.00000000E+00
  0.00000000E+00  0.00000000E+00  0.00000000E+00
  0.00000000E+00  0.00000000E+00  0.00000000E+00
  0.00000000E+00  0.00000000E+00  0.00000000E+00
  0.00000000E+00  0.00000000E+00  0.00000000E+00
  0.00000000E+00  0.00000000E+00  0.00000000E+00
  0.00000000E+00  0.00000000E+00  0.00000000E+00
  0.00000000E+00  0.00000000E+00  0.00000000E+00
  0.00000000E+00  0.00000000E+00  0.00000000E+00
  0.00000000E+00  0.00000000E+00  0.00000000E+00
  0.00000000E+00  0.00000000E+00  0.00000000E+00
  0.00000000E+00  0.00000000E+00  0.00000000E+00
  0.00000000E+00  0.00000000E+00  0.00000000E+00
  0.00000000E+00  0.00000000E+00  0.00000000E+00
  0.00000000E+00  0.00000000E+00  0.00000000E+00
