Mn12O24                                 
   1.00000000000000     
    11.4294996262000002    0.0000000000000000    0.0000000000000000
    -5.7149085917000004    9.8966311518999994    0.0000000000000000
     0.0030943225000000   -0.0162083707000000   15.2881275770999991
   Mn   O    Ni   Na
    36    96    12     1
Direct
  0.0854178731543496  0.1701549122951788  0.3244166975857480
  0.0854757091315436  0.6713644756745580  0.3247984287106981
  0.5847820803751952  0.1703575694989276  0.3276865723179195
  0.5849001342929497  0.6704233666991382  0.3270379094725458
  0.3350939353476355  0.1703799364448395  0.3276729489069059
  0.3352383764829989  0.6713226554250269  0.3245777590282597
  0.8341511018378694  0.1701341209134701  0.3244376146550073
  0.8349416816332239  0.6704548696918468  0.3271900838482664
  0.3351507304605021  0.4200908404698603  0.3243388548030141
  0.3351652880886245  0.9208362911399465  0.3277598847099328
  0.8342626328314183  0.4201109779687324  0.3246078376203927
  0.8350080581825745  0.9204355531790012  0.3272415656682648
  0.1646861960346219  0.0790142955640737  0.6727896184691304
  0.1653391359833923  0.5801930421603665  0.6815467855672137
  0.6648311070838032  0.0790032320344425  0.6727773668758182
  0.6648293339584845  0.5791433154755991  0.6713905563479085
  0.1651980722114344  0.3285548696353711  0.6805747498674131
  0.1647757025437337  0.8292113107575481  0.6732280085364635
  0.6648217622455795  0.3293286395854849  0.6729591596975473
  0.6648762980894998  0.8291778061031454  0.6713191383581826
  0.4149366284639652  0.3293620549185663  0.6728718905834716
  0.4150525198993337  0.8291661478726798  0.6732694855646102
  0.9138255515950204  0.3285108383826571  0.6806294612074477
  0.9149238319602744  0.8291420742735223  0.6712768445713440
  0.5000368878204239  0.5000648695302961 -0.0000865446448452
  0.5000056900659108  0.0000387130220014 -0.0000862368749371
  0.0000118347947705  0.5000467178182971  0.0001121712829282
  0.0000045405818319  0.0000045576083478 -0.0001027793289074
  0.5000284096931431  0.2500631401788222 -0.0000636975297734
  0.5000449434489543  0.7500771434819575 -0.0001015664330309
  0.0000103015233795  0.2499980790063381  0.0000521909080966
  0.0000099574867678  0.7500521163776870 -0.0000839379776597
  0.2500441384383584  0.5000361929331151  0.0000814238278273
  0.2500078635517452  0.0000238380702585 -0.0000748282352236
  0.7500013527391944  0.5000561573460155 -0.0000779831464716
  0.7499923737485156  0.0000168005913481 -0.0000990723387490
  0.0001814750978229  0.4941272110964427  0.6146809981813943
 -0.0019876379068514  0.9970950977639118  0.6093609209213389
  0.4964958511684364  0.4960534684485078  0.6096509554851620
  0.4977122868836738  0.9958557722787014  0.6096899846936804
  0.0001899560438403  0.2496315529053798  0.6137833072083563
 -0.0018285014017826  0.7437625520354466  0.6098264502437762
  0.4979250202391229  0.2453301859854056  0.6095878887534967
  0.4963523319796334  0.7438863584331350  0.6098084742752254
  0.2444001733708498  0.4941637287365506  0.6145965607149625
  0.2487682659310318  0.9959696589125493  0.6096771885263628
  0.7501378121550054  0.4960204083082992  0.6097380282932404
  0.7497301215618417  0.9971149519273970  0.6093738773244981
  0.2462769446825760  0.2476108804555617  0.6114228738358755
  0.2461297124364522  0.7416550359189037  0.6121621659112162
  0.7518368686590196  0.2476808243250636  0.6114748924789157
  0.7481089488185334  0.7456086752780227  0.6077531651626432
  0.0027265536734778  0.0048288468505546  0.3895212342304246
  0.0038934789926224  0.5017733825287622  0.3868851656482050
  0.5022343790346318  0.0036385708603539  0.3904635240454090
  0.5005449411252837  0.5028777840883945  0.3892861000161561
  0.0037118439148621  0.2580703292569937  0.3866220083349414
  0.0025694185332939  0.7540295338075251  0.3896301382740252
  0.5020786532190756  0.2546313317801219  0.3904064243895180
  0.5007497919699612  0.7538938287291962  0.3894497225310047
  0.2509447941215484  0.0036748966943918  0.3904679069393785
  0.2472594391775529  0.5017546063650303  0.3866555399497737
  0.7516565751020499  0.0048426873520159  0.3894514298926593
  0.7515275695984299  0.5029607389830584  0.3894514485424070
  0.2506921108239437  0.2548825891614103  0.3893888368710495
  0.2510115034938453  0.7524924189191321  0.3895993385047876
  0.7534611891848968  0.2547397812880857  0.3894970719963088
  0.7515368674056515  0.7537879719692573  0.3908070141281066
  0.1681159295220360  0.0855274260994951  0.2639750514709176
  0.1691488505982356  0.5890628843265697  0.2600083718419263
  0.6669761219981544  0.0855637260065171  0.2639690717462140
  0.6678163652549844  0.5860423443156331  0.2645789584084344
  0.1690382880767194  0.3360694308890691  0.2597758202429984
  0.1681745045766897  0.8383700018749080  0.2641696252974175
  0.6671929835482630  0.3372892143921232  0.2639920646320161
  0.6678993953043731  0.8375250842231754  0.2645692171543360
  0.4183438209629840  0.0871353200296805  0.2643808292271529
  0.4188112133305780  0.5874896789285270  0.2622721736262534
  0.9178712226316935  0.0862181598949924  0.2624097076046086
  0.9180983916526823  0.5874709460459989  0.2625627808225767
  0.4196413044079451  0.3372002969304247  0.2639517239781459
  0.4197594390230452  0.8384160989457735  0.2640996546214847
  0.9162599604055924  0.3361059106355485  0.2599040096901875
  0.9192411346874818  0.8375414421447889  0.2646778101892159
  0.1671819331798910  0.0844526234578163  0.0627510598548950
  0.1672924041774126  0.5845737474622211  0.0628150830866888
  0.6672059645189110  0.0844713422669727  0.0627424913368319
  0.6672962912277575  0.5846230058958292  0.0627064927094022
  0.1672615073157590  0.3328930836734675  0.0627847553757996
  0.1672213852069201  0.8329548203658131  0.0627714929560753
  0.6672274767314722  0.3329707161074443  0.0627750367050936
  0.6672557763987265  0.8329464790779172  0.0627146677818446
  0.4166889684618120  0.0834125737683205  0.0632179280747808
  0.4167954663637801  0.5835077881178373  0.0632145865445441
  0.9166746539911134  0.0833712581657419  0.0631901726410968
  0.9166669949744710  0.5834889641784037  0.0632542477881087
  0.4156977643801689  0.3329713342871587  0.0627539381447595
  0.4157095360054144  0.8329548516736605  0.0627488080504981
  0.9156277377707470  0.3328825101715301  0.0627887702927223
  0.9156193914535226  0.8329312686083301  0.0627148251534338
  0.0844449922757374  0.1672111724825498  0.9372084998681542
  0.0844387074286135  0.6671000902284195  0.9372614597862028
  0.5844434223106931  0.1672047122952813  0.9371856558517205
  0.5843638529704701  0.6671538915560842  0.9371085564288143
  0.0833405728777506  0.4166367365355293  0.9369147622559322
  0.0833440175692852  0.9166246797837221  0.9365948581584163
  0.5833210465057929  0.4166333005972101  0.9366003746964821
  0.5833184927171522  0.9166434096963505  0.9365773020344765
  0.3327842791524283  0.1671713006632185  0.9371907963562581
  0.3326898324007920  0.6671362632516025  0.9372509215840127
  0.8328246882188949  0.1672381262240134  0.9372196074169503
  0.8328072022995694  0.6671466387112429  0.9371208067368232
  0.3327131172274220  0.4154936222350081  0.9372321885205642
  0.3327492025037830  0.9154962096452006  0.9371666962895945
  0.8328323691953351  0.4155186993237608  0.9372606947684020
  0.8327882534715387  0.9155632520747029  0.9371086703544177
  0.0795280184198042  0.1592594401575789  0.7380231996216444
  0.0796872253072477  0.6639961788535915  0.7388982934695448
  0.5801598618694686  0.1618391884795889  0.7351242600722065
  0.5812092392899534  0.6624353223807476  0.7345946418812562
  0.0812905700380857  0.4121143993894059  0.7440786821137686
  0.0809347507996519  0.9124092224908712  0.7355410713907725
  0.5817223284280773  0.4130908228573786  0.7355230731883543
  0.5820355842864644  0.9124159053761167  0.7355895498170917
  0.3320716458624918  0.1619151113492675  0.7351184869657998
  0.3347994104207107  0.6639162027634897  0.7389078979608564
  0.8302683071934895  0.1592715010517673  0.7380136657981176
  0.8317037383577024  0.6624185525700629  0.7346252680626009
  0.3344276719320015  0.4140412026570270  0.7383816761608419
  0.3324237583649923  0.9142744516090757  0.7353368914949152
  0.8300152998099356  0.4139515476000525  0.7384727183407179
  0.8318894272542350  0.9131348777487278  0.7343383591357888
  0.0848726195630634  0.4204899467466581  0.3190424013056112
  0.0849993055904020  0.9205026793032099  0.3274180298883038
  0.5849181793164323  0.4204219309796495  0.3272937404696721
  0.5850321883596001  0.9204627094424193  0.3273467936450724
  0.4148781241251445  0.0792700745278347  0.6721955573937060
  0.4149395903907393  0.5792183420921303  0.6738158581160054
  0.9147765571720268  0.0789581551610686  0.6731438803914805
  0.9147956688701129  0.5791900071153394  0.6739065173080355
  0.2500186248282790  0.2500194171533222  0.0000198106671045
  0.2500210828443468  0.7500500590149114  0.0000459262418127
  0.7500074320411948  0.2500383749725625  0.0000214551677070
  0.7500208873547726  0.7500613467577176 -0.0001013740852048
  0.1671600000000000  0.5010200000000000  0.4997155920716750
