System                                  
   1.0000000000000000     
    11.3414376695480694   -0.0647836135991604   -0.2488026780888000
    -5.6337010728795018    9.9288513910399363    0.0710431474792025
     0.0222419509143507    0.0786910209071783    9.2036924770866690
  Li              Mn              Co              Ni              O             
     6    12     8    12    64
Direct
     0.1737675739415428    0.3388756560421616    0.8989279720249932
     0.6745503130326697    0.8407476997762650    0.8975896659554025
     0.3342911534228591    0.1639460983995761    0.4021918128266675
     0.3346254911156800    0.6657125094285801    0.4017386947137450
     0.8344922236817529    0.1636994211882403    0.4022260969702723
     0.8340738179310118    0.6637097339713005    0.4008248527631254
     0.0841628461491268    0.4188382495409017    0.2117980422238924
     0.0828148798479582    0.9165652929792291    0.2113323837983457
     0.5833401118536304    0.4150970778260439    0.2056261389274014
     0.5837992462863056    0.9170345628266803    0.2102442069378078
     0.0833513470364503    0.1676879304475256    0.2114383178821086
     0.0853196715424675    0.6692513465773037    0.2105349982408299
     0.5836101644530175    0.1670626181143977    0.2080720851970768
     0.5843262574878625    0.6666204617987638    0.2099774782203145
     0.1618519467223236    0.0780615934073574    0.7152847699058039
     0.1686865472809968    0.5842816569367347    0.7117884958556251
     0.6660664410191569    0.0848628550969205    0.7119422574848915
     0.6668895051224333    0.5775183289986086    0.7070819664475099
     0.1667120948988632    0.3298568446768738    0.4856855297163825
     0.1650442888010969    0.8311565502750535    0.4895517878896182
     0.6720890779593427    0.3330840799424128    0.4857710626932797
     0.6683345550953007    0.8281155436500598    0.4852573393802856
     0.3353530197763602    0.1644858581211256    0.9822609265836025
     0.3416014148967291    0.6740295509298221    0.9831656937754447
     0.8395735386475911    0.1743471027617902    0.9832471333727232
     0.8390111357293956    0.6700997505253262    0.9816593122364506
     0.4136130506666845    0.0825836227488653    0.7133626264815017
     0.4202369424288037    0.5871574087736646    0.7099934106043424
     0.9172282759914192    0.0859123196270613    0.7125271408308647
     0.9199904343747158    0.5866783147475136    0.7120794734934527
     0.3328526877102183    0.4158632544482155    0.2087327495850643
     0.3318430622404454    0.9165707338782546    0.2108638114214388
     0.8317806591615204    0.4155425744884536    0.2087395529150529
     0.8323182121983961    0.9160995996820938    0.2085005211570787
     0.4123813593859813    0.3287196717052135    0.7065168402610099
     0.4166674262768847    0.8342264195076309    0.7143617359996295
     0.9158436451327160    0.3332246116607915    0.7134313748194090
     0.9132709874779251    0.8290069634950512    0.7116602176972071
     0.1693734850390509    0.0847682892735829    0.1082577455452585
     0.1723350791122423    0.5880155470459848    0.1072995721051947
     0.6701424392112104    0.0859908298348701    0.1041658041164974
     0.6706475657365482    0.5860156331432356    0.1025702240018093
     0.4192066140701004    0.3326120221077994    0.0927829966493038
     0.4201194250088521    0.8341740033002983    0.0952866623631123
     0.9205130774126409    0.3400800146824009    0.0935565758106480
     0.9177460361268781    0.8324625747894135    0.0959954191063375
     0.3293934410613988    0.1628721247574249    0.6104113546086958
     0.3371865970746533    0.6728944074913007    0.6102741101245738
     0.8349780289079372    0.1714702997479278    0.6106194122690761
     0.8368404364681816    0.6682848738873453    0.6087404502862603
     0.2618945451442044    0.0179394866096370    0.8414860789429799
     0.2650807284672219    0.5255432903641536    0.8416180902905218
     0.7636841767835389    0.0267186242775072    0.8434816321878821
     0.7657004091779139    0.5242774175824617    0.8414991551159687
     0.2493771678444034    0.2274920461635464    0.8479585558627135
     0.2642675389171580    0.7423380382617487    0.8390982676757895
     0.7632928949176042    0.2432821975014142    0.8384346381675035
     0.7597957078445825    0.7381713389865260    0.8358082712456368
     0.3182356784540647    0.4058839291322949    0.5958296983286854
     0.3354446019267666    0.9176725625217349    0.5945310479335271
     0.8299034229968254    0.4112627036682782    0.5945384167804394
     0.8210214444054390    0.9046964921563330    0.5979988956436296
     0.2330057321673345    0.2522602425434514    0.3479888823063934
     0.2365944085245970    0.7577633393824400    0.3471300150818271
     0.7382094781454936    0.2565465747853293    0.3428935339591847
     0.7331260682228523    0.7506038213007895    0.3473087831509920
     0.0189376128019037    0.2600656069577453    0.3382409027523495
     0.0190863595490664    0.7587474993097262    0.3403590882142550
     0.5213114694339295    0.2604550438840025    0.3375659829732076
     0.5201637126459140    0.7590560607193868    0.3380719517605831
     0.0804286988714374    0.1618273787693229    0.6000451870034377
     0.0871437643342921    0.6710980660098808    0.6004863490334419
     0.5816456194559230    0.1649474655489480    0.5969407104501813
     0.5822650836524913    0.6606198285706084    0.5944919296211316
     0.9929345535282538    0.9923702655925724    0.8118200103771991
     0.0000179236420213    0.4988879067718052    0.8111112819555507
     0.4977618970781896    0.9995086647187739    0.8126423973317340
     0.4985682758353008    0.4945145015349286    0.8047563035462756
     0.9960297155434220    0.9986331838314186    0.3108177409130112
     0.9979104188138268    0.4991661646107771    0.3111280323608142
     0.4991983266860053    0.9986135555983675    0.3107422448085652
     0.4983830014260761    0.4972050639657870    0.3088814501796782
     0.1678106265688743    0.3354268135027050    0.1071471338840023
     0.1676406882002724    0.8359259868782714    0.1085388307936758
     0.6680693020282991    0.3336791771621677    0.1046260889721763
     0.6681198200767182    0.8341781163308446    0.1057174727266464
     0.4765531631374473    0.2337658868140887    0.8427942379478371
     0.4851132708142255    0.7531411571311087    0.8462528855089783
     0.9836042793200289    0.2538397078559854    0.8469347146320735
     0.9817612940791965    0.7493578779730595    0.8457847419972917
     0.0819961905637776    0.4176090197630880    0.6023846962161794
     0.0781370261883103    0.9133767630243996    0.6010915008560044
     0.5938547481889643    0.4160016018033480    0.5944506087192702
     0.5836272987850484    0.9170140651210907    0.6055021699719885
     0.2361622077872901    0.4772645184061092    0.3471486168143723
     0.2326966507268473    0.9762808149380849    0.3504107600995898
     0.7401199489150324    0.4776059413336011    0.3405749946114598
     0.7367793382982799    0.9761214648998753    0.3464117530110699
     0.4169163039846572    0.0895512083893317    0.0998362373573577
     0.4200450913854494    0.5935052577570784    0.0952014767680197
     0.9186719804588809    0.0960931231525721    0.0959389173302076
     0.9189205011812663    0.5912655690759525    0.0967234670067750

  0.00000000E+00  0.00000000E+00  0.00000000E+00
  0.00000000E+00  0.00000000E+00  0.00000000E+00
  0.00000000E+00  0.00000000E+00  0.00000000E+00
  0.00000000E+00  0.00000000E+00  0.00000000E+00
  0.00000000E+00  0.00000000E+00  0.00000000E+00
  0.00000000E+00  0.00000000E+00  0.00000000E+00
  0.00000000E+00  0.00000000E+00  0.00000000E+00
  0.00000000E+00  0.00000000E+00  0.00000000E+00
  0.00000000E+00  0.00000000E+00  0.00000000E+00
  0.00000000E+00  0.00000000E+00  0.00000000E+00
  0.00000000E+00  0.00000000E+00  0.00000000E+00
  0.00000000E+00  0.00000000E+00  0.00000000E+00
  0.00000000E+00  0.00000000E+00  0.00000000E+00
  0.00000000E+00  0.00000000E+00  0.00000000E+00
  0.00000000E+00  0.00000000E+00  0.00000000E+00
  0.00000000E+00  0.00000000E+00  0.00000000E+00
  0.00000000E+00  0.00000000E+00  0.00000000E+00
  0.00000000E+00  0.00000000E+00  0.00000000E+00
  0.00000000E+00  0.00000000E+00  0.00000000E+00
  0.00000000E+00  0.00000000E+00  0.00000000E+00
  0.00000000E+00  0.00000000E+00  0.00000000E+00
  0.00000000E+00  0.00000000E+00  0.00000000E+00
  0.00000000E+00  0.00000000E+00  0.00000000E+00
  0.00000000E+00  0.00000000E+00  0.00000000E+00
  0.00000000E+00  0.00000000E+00  0.00000000E+00
  0.00000000E+00  0.00000000E+00  0.00000000E+00
  0.00000000E+00  0.00000000E+00  0.00000000E+00
  0.00000000E+00  0.00000000E+00  0.00000000E+00
  0.00000000E+00  0.00000000E+00  0.00000000E+00
  0.00000000E+00  0.00000000E+00  0.00000000E+00
  0.00000000E+00  0.00000000E+00  0.00000000E+00
  0.00000000E+00  0.00000000E+00  0.00000000E+00
  0.00000000E+00  0.00000000E+00  0.00000000E+00
  0.00000000E+00  0.00000000E+00  0.00000000E+00
  0.00000000E+00  0.00000000E+00  0.00000000E+00
  0.00000000E+00  0.00000000E+00  0.00000000E+00
  0.00000000E+00  0.00000000E+00  0.00000000E+00
  0.00000000E+00  0.00000000E+00  0.00000000E+00
  0.00000000E+00  0.00000000E+00  0.00000000E+00
  0.00000000E+00  0.00000000E+00  0.00000000E+00
  0.00000000E+00  0.00000000E+00  0.00000000E+00
  0.00000000E+00  0.00000000E+00  0.00000000E+00
  0.00000000E+00  0.00000000E+00  0.00000000E+00
  0.00000000E+00  0.00000000E+00  0.00000000E+00
  0.00000000E+00  0.00000000E+00  0.00000000E+00
  0.00000000E+00  0.00000000E+00  0.00000000E+00
  0.00000000E+00  0.00000000E+00  0.00000000E+00
  0.00000000E+00  0.00000000E+00  0.00000000E+00
  0.00000000E+00  0.00000000E+00  0.00000000E+00
  0.00000000E+00  0.00000000E+00  0.00000000E+00
  0.00000000E+00  0.00000000E+00  0.00000000E+00
  0.00000000E+00  0.00000000E+00  0.00000000E+00
  0.00000000E+00  0.00000000E+00  0.00000000E+00
  0.00000000E+00  0.00000000E+00  0.00000000E+00
  0.00000000E+00  0.00000000E+00  0.00000000E+00
  0.00000000E+00  0.00000000E+00  0.00000000E+00
  0.00000000E+00  0.00000000E+00  0.00000000E+00
  0.00000000E+00  0.00000000E+00  0.00000000E+00
  0.00000000E+00  0.00000000E+00  0.00000000E+00
  0.00000000E+00  0.00000000E+00  0.00000000E+00
  0.00000000E+00  0.00000000E+00  0.00000000E+00
  0.00000000E+00  0.00000000E+00  0.00000000E+00
  0.00000000E+00  0.00000000E+00  0.00000000E+00
  0.00000000E+00  0.00000000E+00  0.00000000E+00
  0.00000000E+00  0.00000000E+00  0.00000000E+00
  0.00000000E+00  0.00000000E+00  0.00000000E+00
  0.00000000E+00  0.00000000E+00  0.00000000E+00
  0.00000000E+00  0.00000000E+00  0.00000000E+00
  0.00000000E+00  0.00000000E+00  0.00000000E+00
  0.00000000E+00  0.00000000E+00  0.00000000E+00
  0.00000000E+00  0.00000000E+00  0.00000000E+00
  0.00000000E+00  0.00000000E+00  0.00000000E+00
  0.00000000E+00  0.00000000E+00  0.00000000E+00
  0.00000000E+00  0.00000000E+00  0.00000000E+00
  0.00000000E+00  0.00000000E+00  0.00000000E+00
  0.00000000E+00  0.00000000E+00  0.00000000E+00
  0.00000000E+00  0.00000000E+00  0.00000000E+00
  0.00000000E+00  0.00000000E+00  0.00000000E+00
  0.00000000E+00  0.00000000E+00  0.00000000E+00
  0.00000000E+00  0.00000000E+00  0.00000000E+00
  0.00000000E+00  0.00000000E+00  0.00000000E+00
  0.00000000E+00  0.00000000E+00  0.00000000E+00
  0.00000000E+00  0.00000000E+00  0.00000000E+00
  0.00000000E+00  0.00000000E+00  0.00000000E+00
  0.00000000E+00  0.00000000E+00  0.00000000E+00
  0.00000000E+00  0.00000000E+00  0.00000000E+00
  0.00000000E+00  0.00000000E+00  0.00000000E+00
  0.00000000E+00  0.00000000E+00  0.00000000E+00
  0.00000000E+00  0.00000000E+00  0.00000000E+00
  0.00000000E+00  0.00000000E+00  0.00000000E+00
  0.00000000E+00  0.00000000E+00  0.00000000E+00
  0.00000000E+00  0.00000000E+00  0.00000000E+00
  0.00000000E+00  0.00000000E+00  0.00000000E+00
  0.00000000E+00  0.00000000E+00  0.00000000E+00
  0.00000000E+00  0.00000000E+00  0.00000000E+00
  0.00000000E+00  0.00000000E+00  0.00000000E+00
  0.00000000E+00  0.00000000E+00  0.00000000E+00
  0.00000000E+00  0.00000000E+00  0.00000000E+00
  0.00000000E+00  0.00000000E+00  0.00000000E+00
  0.00000000E+00  0.00000000E+00  0.00000000E+00
  0.00000000E+00  0.00000000E+00  0.00000000E+00
  0.00000000E+00  0.00000000E+00  0.00000000E+00
