System                                  
   1.0000000000000000     
     8.6223136373384985   -0.1477506789994621    0.2010004698884678
     7.2742807980154831    4.6683838348147653    0.2024264441121558
    -0.2841596057302683   -0.0808377755369730   10.8808305513483816
  V               F             
     8    28
Direct
     0.1414773274823456    0.6303431864827078    0.3922172907864441
     0.1424839394570031    0.6301303223999322    0.8921074153449160
     0.6287601171337138    0.1447710509559502    0.1419405053041327
     0.6291730754218040    0.1454227874585627    0.6417112152685547
     0.3692125290938698    0.8559987635147591    0.3576804891367858
     0.3700940804342822    0.8560799281747229    0.8581406566882183
     0.8546962046531119    0.3712450531891123    0.1074084822139773
     0.8576425425844618    0.3705529796915643    0.6073529526056094
     0.6395597988479542    0.5150112795918269    0.4506149210433428
     0.6387654454563887    0.5152647266898737    0.9511753154775001
     0.5025288322851255    0.6511792571058972    0.2078893423601399
     0.5062102113773372    0.6490408459286782    0.7089424724455192
     0.2066045513108684    0.0593143280181774    0.0095125276096484
     0.2075772764142030    0.0585213465993618    0.5097604582836889
     0.0739101604500231    0.1935782361955167    0.2662333614670731
     0.0772593536911992    0.1924325405980702    0.7655334430742093
     0.5984481157524680    0.8204236963167574    0.3425725603053524
     0.6012063973432773    0.8183234689986411    0.8442361842341086
     0.8233696488792170    0.6048513514358114    0.0981199141390166
     0.8116198039329620    0.6151879956300429    0.5944679847562113
     0.9218686088193129    0.8079811614397485    0.2346135813384064
     0.9239942540671947    0.8079524232822225    0.7340016247211503
     0.3997289744703780    0.1802918673529864    0.1565519178369421
     0.4013952376109298    0.1791938572126566    0.6566091359414811
     0.1371720110438146    0.8698151516088757    0.3744281068883878
     0.1373021085526980    0.8704971791256312    0.8739534756671606
     0.7915905368719802    0.9426996571984835    0.4897990405845738
     0.7924772190513325    0.9416517102460336    0.9902584650682406
     0.4935474157347401    0.3516046236857698    0.2908681090105181
     0.4948652161779954    0.3507756156222966    0.7911410384199044
     0.3606375545273087    0.4849684020647180    0.0487322529905601
     0.3592686176626637    0.4861107544817778    0.5490679409657589
     0.1879396672373934    0.3853993833833654    0.4053850913688535
     0.1879205604998644    0.3858984238911674    0.9047561694898576
     0.8644231794864494    0.1275495769028115    0.1268879774341430
     0.8619393418808429    0.1309756940192540    0.6255644671955857

  0.00000000E+00  0.00000000E+00  0.00000000E+00
  0.00000000E+00  0.00000000E+00  0.00000000E+00
  0.00000000E+00  0.00000000E+00  0.00000000E+00
  0.00000000E+00  0.00000000E+00  0.00000000E+00
  0.00000000E+00  0.00000000E+00  0.00000000E+00
  0.00000000E+00  0.00000000E+00  0.00000000E+00
  0.00000000E+00  0.00000000E+00  0.00000000E+00
  0.00000000E+00  0.00000000E+00  0.00000000E+00
  0.00000000E+00  0.00000000E+00  0.00000000E+00
  0.00000000E+00  0.00000000E+00  0.00000000E+00
  0.00000000E+00  0.00000000E+00  0.00000000E+00
  0.00000000E+00  0.00000000E+00  0.00000000E+00
  0.00000000E+00  0.00000000E+00  0.00000000E+00
  0.00000000E+00  0.00000000E+00  0.00000000E+00
  0.00000000E+00  0.00000000E+00  0.00000000E+00
  0.00000000E+00  0.00000000E+00  0.00000000E+00
  0.00000000E+00  0.00000000E+00  0.00000000E+00
  0.00000000E+00  0.00000000E+00  0.00000000E+00
  0.00000000E+00  0.00000000E+00  0.00000000E+00
  0.00000000E+00  0.00000000E+00  0.00000000E+00
  0.00000000E+00  0.00000000E+00  0.00000000E+00
  0.00000000E+00  0.00000000E+00  0.00000000E+00
  0.00000000E+00  0.00000000E+00  0.00000000E+00
  0.00000000E+00  0.00000000E+00  0.00000000E+00
  0.00000000E+00  0.00000000E+00  0.00000000E+00
  0.00000000E+00  0.00000000E+00  0.00000000E+00
  0.00000000E+00  0.00000000E+00  0.00000000E+00
  0.00000000E+00  0.00000000E+00  0.00000000E+00
  0.00000000E+00  0.00000000E+00  0.00000000E+00
  0.00000000E+00  0.00000000E+00  0.00000000E+00
  0.00000000E+00  0.00000000E+00  0.00000000E+00
  0.00000000E+00  0.00000000E+00  0.00000000E+00
  0.00000000E+00  0.00000000E+00  0.00000000E+00
  0.00000000E+00  0.00000000E+00  0.00000000E+00
  0.00000000E+00  0.00000000E+00  0.00000000E+00
  0.00000000E+00  0.00000000E+00  0.00000000E+00
