System
1.0
8.81726245405789 -0.087853726315024 0.2706918239502399
7.472194658145994 4.6971538606051855 0.2609557105804541
-0.2041902856766415 -0.0821406022442523 10.934458024115317
V F 
8 28 
direct
0.1473280864460964 0.637092556787253 0.397996732371126 V
0.1413493934903982 0.6360165495230576 0.8961896261157098 V
0.6271789195343955 0.1521993853672852 0.1447370206445547 V
0.6310504184149073 0.1489284620689822 0.646509708019873 V
0.3687776563607348 0.8496199619530712 0.3541702144181194 V
0.3698636005676872 0.8518634862428122 0.853445579596377 V
0.856481763906828 0.3541809636985729 0.1013007884760441 V
0.8568669637483258 0.3654521934402748 0.6043763752079704 V
0.6373399158355828 0.5128504696265973 0.4471147037882415 F
0.6412603290443573 0.5091028825960965 0.9473742689527436 F
0.5021988594143848 0.6467087002766314 0.20652250138754 F
0.5078510335365216 0.6433426650406692 0.7045310722550622 F
0.2074435332650575 0.058158114348854 0.0042559822565148 F
0.2059617418333093 0.0569231520882808 0.5047968889378837 F
0.0796117010092191 0.1933966714165651 0.2614705975375738 F
0.0807602983148509 0.1882723108849199 0.7612132277630843 F
0.6032973082264382 0.8050859669005016 0.3388408325000865 F
0.6045406760884816 0.8047697020926151 0.8388601007949735 F
0.8170826929621522 0.5958097001980439 0.1053133366662021 F
0.8135874942115744 0.6040181862083425 0.589959541554437 F
0.9239491361842864 0.7965642354483266 0.2433514117144723 F
0.9240911021107883 0.8103240789517042 0.7352965217214206 F
0.3803424680483666 0.198198929844122 0.1664437406388784 F
0.4023815944810736 0.1881927700368321 0.6579749570617112 F
0.1256415400712541 0.8857329598304361 0.3753290445262644 F
0.138079386661338 0.8722481535885455 0.8718157651786627 F
0.7943532228875534 0.946139152703068 0.4935376966326132 F
0.7943590344491712 0.94037251046586 0.9877388153443274 F
0.4872194359573754 0.3664369691164692 0.3005607701294414 F
0.4955852041829943 0.3558216645341233 0.7929010825064183 F
0.3555717919358472 0.4972679704011556 0.0490934687639977 F
0.3613768162437254 0.4906997506564185 0.553856526122162 F
0.168598966688596 0.4103756180561933 0.4021715695666855 F
0.1896789929132338 0.3927780356629845 0.9050665015413392 F
0.8880093518938144 0.1102147414834606 0.130126561707821 F
0.8675994847757873 0.1258790049546198 0.6259923550656438 F
