System                                  
   1.0000000000000000     
     8.9310457637413538   -0.0001003182926825    0.3332336463685742
     7.6150165996068830    4.6663757402637112    0.3332356764338762
    -0.1333034319483890   -0.0375947620015553   11.0455800691216073
  Li              V               F             
     4     8    28
Direct
     0.4999991406780941    0.0000010080675834    0.0000009965919709
     0.4999999244810770   -0.0000002382679021    0.5000000736823195
     0.0000011003564079    0.4999988502222121    0.2499995853734253
    -0.0000009229589260    0.5000007661934525    0.7499996175350673
     0.1496319882794348    0.6391288547365848    0.4007117196030572
     0.1496311259747144    0.6391289243320736    0.9007115030702650
     0.6391288593356035    0.1496313502701699    0.1507115761922752
     0.6391283578025049    0.1496321805944047    0.6507119403210471
     0.3608710305914514    0.8503685172875395    0.3492881421973110
     0.3608710814417866    0.8503685389487706    0.8492884079223755
     0.8503680231007793    0.3608718000516575    0.0992879595772292
     0.8503680453020043    0.3608714883315715    0.5992880958231780
     0.6446953063883710    0.4992244485263386    0.4470348698742982
     0.6446952531500409    0.4992246955498876    0.9470354930624094
     0.4992243937711603    0.6446954176136178    0.1970350077519914
     0.4992254789220356    0.6446944995001338    0.6970349791331761
     0.2110754639162306    0.0702699530162291    0.0036920120627999
     0.2110742085779719    0.0702704316446880    0.5036925637994997
     0.0702690388040682    0.2110755631946736    0.2536920109087309
     0.0702700467145416    0.2110744300807474    0.7536926717626928
     0.6193500697477349    0.7957908607758344    0.3454416051829778
     0.6193494973154338    0.7957914532554269    0.8454412618046092
     0.7957913689039403    0.6193508585829482    0.0954411961958173
     0.7957915977973135    0.6193497913239756    0.5954415783179995
     0.9297296326590626    0.7889267992579118    0.2463072450669681
     0.9297299012168511    0.7889248972405652    0.7463080527138869
     0.3806482718071223    0.2042095150971173    0.1545599966047122
     0.3806498127719505    0.2042093794966114    0.6545584203461859
     0.1012873772287852    0.8987127413508263    0.3750000025924302
     0.1012871434330215    0.8987123572549459    0.8749998544131837
     0.7889250899962500    0.9297303767161688    0.4963080745187069
     0.7889239871055855    0.9297305260795047    0.9963078671142533
     0.5007762102504281    0.3553038231678432    0.3029648984132108
     0.5007758221110772    0.3553040681879237    0.8029648248453173
     0.3553082425852999    0.5007714009090697    0.0529642591756461
     0.3553043498163280    0.5007764065855718    0.5529646629383892
     0.2042069686810412    0.3806518351251476    0.4045587848739335
     0.2042075410665694    0.3806511768841221    0.9045579214415873
     0.8987158117378505    0.1012848481347559    0.1250005947226056
     0.8987143591390019    0.1012854046792959    0.6249996724724612

  0.00000000E+00  0.00000000E+00  0.00000000E+00
  0.00000000E+00  0.00000000E+00  0.00000000E+00
  0.00000000E+00  0.00000000E+00  0.00000000E+00
  0.00000000E+00  0.00000000E+00  0.00000000E+00
  0.00000000E+00  0.00000000E+00  0.00000000E+00
  0.00000000E+00  0.00000000E+00  0.00000000E+00
  0.00000000E+00  0.00000000E+00  0.00000000E+00
  0.00000000E+00  0.00000000E+00  0.00000000E+00
  0.00000000E+00  0.00000000E+00  0.00000000E+00
  0.00000000E+00  0.00000000E+00  0.00000000E+00
  0.00000000E+00  0.00000000E+00  0.00000000E+00
  0.00000000E+00  0.00000000E+00  0.00000000E+00
  0.00000000E+00  0.00000000E+00  0.00000000E+00
  0.00000000E+00  0.00000000E+00  0.00000000E+00
  0.00000000E+00  0.00000000E+00  0.00000000E+00
  0.00000000E+00  0.00000000E+00  0.00000000E+00
  0.00000000E+00  0.00000000E+00  0.00000000E+00
  0.00000000E+00  0.00000000E+00  0.00000000E+00
  0.00000000E+00  0.00000000E+00  0.00000000E+00
  0.00000000E+00  0.00000000E+00  0.00000000E+00
  0.00000000E+00  0.00000000E+00  0.00000000E+00
  0.00000000E+00  0.00000000E+00  0.00000000E+00
  0.00000000E+00  0.00000000E+00  0.00000000E+00
  0.00000000E+00  0.00000000E+00  0.00000000E+00
  0.00000000E+00  0.00000000E+00  0.00000000E+00
  0.00000000E+00  0.00000000E+00  0.00000000E+00
  0.00000000E+00  0.00000000E+00  0.00000000E+00
  0.00000000E+00  0.00000000E+00  0.00000000E+00
  0.00000000E+00  0.00000000E+00  0.00000000E+00
  0.00000000E+00  0.00000000E+00  0.00000000E+00
  0.00000000E+00  0.00000000E+00  0.00000000E+00
  0.00000000E+00  0.00000000E+00  0.00000000E+00
  0.00000000E+00  0.00000000E+00  0.00000000E+00
  0.00000000E+00  0.00000000E+00  0.00000000E+00
  0.00000000E+00  0.00000000E+00  0.00000000E+00
  0.00000000E+00  0.00000000E+00  0.00000000E+00
  0.00000000E+00  0.00000000E+00  0.00000000E+00
  0.00000000E+00  0.00000000E+00  0.00000000E+00
  0.00000000E+00  0.00000000E+00  0.00000000E+00
  0.00000000E+00  0.00000000E+00  0.00000000E+00
