System
1.0
8.88868 0.01381 0.29589
7.58615 4.6324 0.29589
-0.17544 -0.04948 10.9425
Li V F 
4 8 28 
direct
0.5 2.354952230084836e-19 -2.704445457562609e-19 Li
0.49999999999999994 -6.118401724947554e-19 0.5 Li
1.2002132870248807e-16 0.49999999999999994 0.25 Li
1.0496346402987651e-16 0.49999999999999994 0.75 Li
0.1499743814170163 0.6398829265514531 0.400063571210454 V
0.14997438141701624 0.639882926551453 0.9000635712104541 V
0.6398829265514528 0.14997438141701608 0.1500635712104541 V
0.6398829265514528 0.1499743814170161 0.6500635712104541 V
0.3601170734485468 0.8500256185829839 0.349936428789546 V
0.3601170734485471 0.850025618582984 0.8499364287895461 V
0.8500256185829842 0.36011707344854665 0.09993642878954594 V
0.8500256185829842 0.3601170734485467 0.5999364287895459 V
0.6446691225983203 0.5010671448755837 0.44831878543105363 F
0.6446691225983203 0.5010671448755838 0.9483187854310535 F
0.5010671448755838 0.6446691225983201 0.19831878543105375 F
0.501067144875584 0.6446691225983201 0.6983187854310537 F
0.2095103140342495 0.06982550857788639 0.003215573092909751 F
0.20951031403424947 0.06982550857788639 0.5032155730929098 F
0.06982550857788646 0.2095103140342495 0.2532155730929098 F
0.06982550857788643 0.2095103140342495 0.7532155730929098 F
0.6176158470598028 0.7959746560306499 0.34440634502984396 F
0.6176158470598028 0.7959746560306499 0.844406345029844 F
0.7959746560306499 0.6176158470598027 0.09440634502984391 F
0.7959746560306501 0.6176158470598028 0.5944063450298439 F
0.9301744914221137 0.7904896859657503 0.24678442690709027 F
0.9301744914221138 0.7904896859657502 0.7467844269070903 F
0.3823841529401971 0.2040253439693502 0.155593654970156 F
0.3823841529401972 0.20402534396935024 0.655593654970156 F
0.10710291968389037 0.8928970803161097 0.375 F
0.10710291968389049 0.8928970803161096 0.8749999999999999 F
0.7904896859657505 0.9301744914221134 0.4967844269070902 F
0.7904896859657505 0.9301744914221133 0.9967844269070902 F
0.4989328551244164 0.35533087740167935 0.3016812145689463 F
0.4989328551244164 0.3553308774016793 0.8016812145689463 F
0.3553308774016795 0.4989328551244163 0.05168121456894625 F
0.35533087740167946 0.49893285512441626 0.5516812145689463 F
0.20402534396935024 0.3823841529401972 0.4055936549701561 F
0.20402534396935026 0.3823841529401972 0.9055936549701562 F
0.89289708031611 0.1071029196838902 0.125 F
0.89289708031611 0.1071029196838902 0.625 F
