System
1.0
9.897317950528732 -0.0029271268046785 -0.0007080970859342
0.0041209076868966 12.699359464741258 -0.0001603373987241
0.0006672815599464 0.000126383522056 9.369809233586876
Li Fe P O 
8 16 16 64 
direct
0.2410703813127247 0.1259761551107862 0.1718754323485924 Li
0.7401081853618682 0.1241770061493944 0.1764476760762375 Li
0.4882847804386719 0.8734691312914961 0.3128369899252126 Li
0.9832917580887601 0.8723424691637625 0.3216891775090898 Li
0.004205360443218 0.6239341936657345 0.675858612428669 Li
0.5109760106471598 0.6237708460417606 0.6755501820757226 Li
0.2684570345203464 0.3739503816843886 0.8425679232525055 Li
0.7732092328511433 0.375222730619733 0.8335387180918906 Li
3.25092962226e-05 0.0019472127410097 0.9876232535132987 Fe
0.9955670881123658 0.5001934370719799 0.013789534637134 Fe
0.5053708945266538 0.002623999658705 0.9874692946978567 Fe
0.497674831957382 0.4988173588194624 0.0158418600056179 Fe
0.001541404985305 0.2526454490126888 0.0033036643053331 Fe
0.9941193109438645 0.7464004378590553 0.0046372793594456 Fe
0.5024787402428823 0.2447688643899461 1.000193082455678 Fe
0.5040179998327272 0.7486237100117037 -0.0053469842129137 Fe
0.2525142177472129 0.0001217595210134 0.5023725866578481 Fe
0.230759115292087 0.5122835912855421 0.4745114471956166 Fe
0.7561794043215918 -0.0028760692847509 0.5093140080983953 Fe
0.7344238074277776 0.5059133812151118 0.4856897459406087 Fe
0.2705701117093749 0.2588255961047629 0.5140471875486446 Fe
0.2457292354467654 0.7514588454364305 0.4941830731778604 Fe
0.7659144247718384 0.2591151202583245 0.5065038605402108 Fe
0.743874042651455 0.7462716993645979 0.4970734567208701 Fe
0.2589772341270861 0.1229958805978022 0.819546190813348 P
0.2630903679073835 0.62151374581858 0.8211605626932041 P
0.7648968281406605 0.1303261019058571 0.8177802157588897 P
0.7630743687762414 0.6195463662437222 0.8281907188236918 P
0.0247977868855915 0.3743597353982325 0.6701647479952573 P
0.0137576626720413 0.8745200031281355 0.6758899846769024 P
0.5208838673529251 0.378777478041081 0.6787950080177667 P
0.513251988638951 0.870976624805982 0.6719498584426293 P
0.4881128628421432 0.1193187979301487 0.3330549798050013 P
0.4792932473614648 0.6318554960092666 0.3180520466607868 P
0.9885570085897082 0.1174834390320996 0.3293463955768208 P
0.9779805133342 0.6290856168798322 0.3237813266877121 P
0.2396262870150922 0.3723327115612036 0.1815564176961538 P
0.2308129475069342 0.8833841962188738 0.1727676819805648 P
0.7365390830664916 0.362978898723491 0.1789646437327805 P
0.7339719315427815 0.8865315545295875 0.1743650391069211 P
0.1089041587242019 0.1211140697972653 0.8761980566316833 O
0.1112866784553477 0.6182414894366028 0.8596066228456077 O
0.616342614793058 0.1254853653785266 0.8688224017231765 O
0.6082977671389407 0.6157902220843853 0.8729021054719457 O
0.0514392934599097 0.3731757649618306 0.8346539661113559 O
0.0361470602460914 0.8824193300041331 0.8437790155598754 O
0.5406157319823178 0.377591425583288 0.846579909128382 O
0.5178314308265072 0.8751560724872627 0.8373090767777225 O
0.2739731817633724 0.1247923824592735 0.6484195693371588 O
0.2894741057803257 0.6176085638813155 0.6521576877024091 O
0.7804233583894908 0.1249097683437531 0.6466387030434841 O
0.782661112904382 0.6238334189463441 0.6604291391274555 O
0.3664393897048754 0.3647070263685359 0.6403785612757495 O
0.3592893018252806 0.8814018074919261 0.6206991169524068 O
0.8706153894445829 0.3662082747352574 0.6316692470801386 O
0.8645500913235032 0.8832628987529247 0.6232213216868299 O
0.1006583939956023 0.2817640896496448 0.6019901144523628 O
0.0763415016719431 0.768759433431998 0.6285774646264294 O
0.6047389921308307 0.287978154948327 0.616468829799864 O
0.5688098229915639 0.7652893693833343 0.617691364239817 O
0.0833119143453257 0.4790358731231089 0.6098678602217499 O
0.0960143157431426 0.9658258741022907 0.6106360420580692 O
0.5717169304411924 0.4840541574705153 0.6200112088576102 O
0.5939184913229024 0.9629896315802411 0.6080523387172923 O
0.419878820762363 0.0167985287675376 0.3898239699551741 O
0.3991867633697461 0.5398011869517672 0.3855155137699019 O
0.9207295283320741 0.0160638465005612 0.3876235773682207 O
0.9074762791064938 0.5342705446015806 0.388307192249252 O
0.1756278970434023 0.26690924576956 0.1333170620394512 O
0.1589701427849522 0.7869418949343936 0.1158358609927236 O
0.6708606998232449 0.2592595777679247 0.1270870451086969 O
0.6578622074742949 0.7903267759324917 0.1217960094808732 O
0.1432091881670471 0.1161552997373344 0.3678430854757351 O
0.1307513964825752 0.6268650359149864 0.3836586779882397 O
0.6424034517771016 0.1185039636723566 0.3735386683056292 O
0.6258618529680547 0.6284475429572335 0.3751337659350271 O
0.2350298845124729 0.3741340300962236 0.3543827151719709 O
0.2041630914192603 0.8868989832276285 0.3422126299265218 O
0.726873933887651 0.3652132885080521 0.3480703450518852 O
0.7133735606517799 0.8859972983695167 0.3451659061679372 O
0.4556746321830137 0.1242963113201522 0.1695346646575849 O
0.4703630460682061 0.620148528197238 0.150080616821417 O
0.9598710210071016 0.1204818848355073 0.1625383611730321 O
0.9739924019342772 0.6263079163271561 0.1595361950628049 O
0.387844104361068 0.3769820409811619 0.1179311560648 O
0.3826651560025627 0.885724347425092 0.1326158488201385 O
0.8828312762618359 0.3692352600908613 0.1202622059480168 O
0.8879783909920055 0.8869376183194991 0.130922269174409 O
0.3277621382812815 0.2235016888231709 0.8764409694419366 O
0.3304989856270082 0.7238856156915479 0.8738146858001425 O
0.8325590806062405 0.2327323182253335 0.8693531033654304 O
0.831552217249063 0.7171987696746306 0.8888578952773661 O
0.1620526773962962 0.4671440477499039 0.1285740837580301 O
0.1619008792453488 0.9851941126685894 0.1120147991385913 O
0.655119024652687 0.4574914940401747 0.1201977008228881 O
0.6694555024752143 0.9896157059892741 0.1200920367415527 O
0.4190971522123122 0.2144478724363922 0.4037051678265876 O
0.411870234040382 0.7371421512705718 0.3613418824592768 O
0.9170524575492919 0.2131281781992921 0.394139899465047 O
0.9182280625131486 0.7348622319562158 0.3777762700711738 O
0.3283575905604485 0.0221958015388511 0.8719677130214559 O
0.3383288546995959 0.5238556222524946 0.884655442202426 O
0.8426921277505328 0.0351147326968713 0.8802878425352063 O
0.8317099003736615 0.5163826504944412 0.8790694867638582 O
