System                                  
   1.0000000000000000     
     5.7329114839011606    3.1587592323463012   -0.0103917209036571
    -5.7329103168438893    3.1587580526129537   -0.0103901841057750
    -0.0000007101788305    0.3384177344029600    6.8906489483078364
  Sr              Fe              N             
     4     4     6
Direct
     0.3143046581155580    0.1760555685135096    0.5839335944199762
     0.8239443766344718    0.6856952282146044    0.9160664405655022
     0.6856721632495099    0.8239311527042552    0.4160704307533576
     0.1760689610290689    0.3143280106916025    0.0839296289697178
     0.4367660167225373    0.8403648809252792    0.8797512400674020
     0.1596352509739656    0.5632340889335966    0.6202485704072495
     0.5632584280872073    0.1596261300766577    0.1202196666419514
     0.8403737546021373    0.4367414401920403    0.3797804475744760
     0.2931463762247898    0.0182132912187498    0.9510785862594697
     0.9817866126073885    0.7068535383913479    0.5489215322333952
     0.7068860945197845    0.9818244891839222    0.0488963330266640
     0.0181755734329234    0.2931139306952991    0.4511035266828590
     0.4202525510874430    0.5797475712754389    0.7499998910017021
     0.5797291827132158    0.4202706789836979    0.2500001113962853

  0.00000000E+00  0.00000000E+00  0.00000000E+00
  0.00000000E+00  0.00000000E+00  0.00000000E+00
  0.00000000E+00  0.00000000E+00  0.00000000E+00
  0.00000000E+00  0.00000000E+00  0.00000000E+00
  0.00000000E+00  0.00000000E+00  0.00000000E+00
  0.00000000E+00  0.00000000E+00  0.00000000E+00
  0.00000000E+00  0.00000000E+00  0.00000000E+00
  0.00000000E+00  0.00000000E+00  0.00000000E+00
  0.00000000E+00  0.00000000E+00  0.00000000E+00
  0.00000000E+00  0.00000000E+00  0.00000000E+00
  0.00000000E+00  0.00000000E+00  0.00000000E+00
  0.00000000E+00  0.00000000E+00  0.00000000E+00
  0.00000000E+00  0.00000000E+00  0.00000000E+00
  0.00000000E+00  0.00000000E+00  0.00000000E+00
