System                                  
   1.0000000000000000     
    11.4009387477082118   -0.1270461853059910   -0.2333408100202317
    -5.7172201767325017    9.9979219821615430    0.0770862630575056
     0.0362140596339119    0.0921245990614989    9.2636120848112711
  Li              Mn              Co              Ni              O             
    10    12     8    12    64
Direct
     0.1723175503383705    0.3352915028976602    0.8960474689437938
     0.1698512250316892    0.8388716473213534    0.8993368371341647
     0.6743281927302607    0.3377660261603698    0.8946268059553220
     0.6674449850394988    0.8375636033601783    0.8991283721493100
     0.4955523558860482    0.4996328183947468    0.4943571272456744
     0.9940132635716423    0.4976359015173085    0.4957993905821175
     0.3321137131573713    0.1621424922880328    0.3979903106859765
     0.3307806577960891    0.6636665939480719    0.4076519122688960
     0.8309063593863525    0.1632245990914237    0.3997046158656676
     0.8317577217995697    0.6669279979503736    0.4047598476721510
     0.0827900973313600    0.4133376154988027    0.2069839912131847
     0.0840440253630683    0.9155153655196543    0.2098082254107373
     0.5839349025961031    0.4160426723171262    0.2058589930158274
     0.5832648239866939    0.9175215464478762    0.2121113204515998
     0.0845144780220529    0.1656956871027931    0.2072033549731926
     0.0851137692214993    0.6679348631211307    0.2104417079692484
     0.5843302789255326    0.1678739952056847    0.2057683795101556
     0.5854188464061615    0.6706598316197570    0.2092101597181113
     0.1698554525464904    0.0814769563493694    0.7036985532391266
     0.1646696773474931    0.5821734745819502    0.7260843157415906
     0.6681284258230146    0.0795456849687296    0.7059209361382730
     0.6664893706314560    0.5852229268315315    0.7237294620649936
     0.1657010500009196    0.3256077997634199    0.4820934709053040
     0.1710709542712212    0.8334204658694567    0.4844349564282552
     0.6655448781713913    0.3276296560504425    0.4825834880831888
     0.6712547781188940    0.8366654238266836    0.4847017549731232
     0.3438351458893404    0.1726408292783768    0.9797122182013108
     0.3363262914895914    0.6708765990801780    0.9871887649562019
     0.8413942284111987    0.1702776221397674    0.9811817422232449
     0.8393914653196317    0.6734371387502248    0.9857723207287022
     0.4213010933755110    0.0880816784617988    0.7050930005909706
     0.4155069033733004    0.5856818626648761    0.7216937235413005
     0.9197349897143164    0.0861861722534998    0.7052334495190381
     0.9162813935772733    0.5868218463685799    0.7218685741061247
     0.3319119840448138    0.4174623167723382    0.2031914247040507
     0.3331814950845083    0.9147121949734393    0.2094035119501680
     0.8318295659571017    0.4179498899066105    0.2036336636716495
     0.8331417712699408    0.9171119116394244    0.2084852450886779
     0.4152646564145665    0.3318977477539313    0.7155345324076220
     0.4123413064276136    0.8319313622462575    0.7114381960888391
     0.9141461962684649    0.3299789604730009    0.7170202408470461
     0.9151098350066166    0.8337958079195179    0.7090228158208770
     0.1710536080250784    0.0848117106722894    0.1044584772714447
     0.1714032799256194    0.5849717596128117    0.1094350682518621
     0.6714812684903551    0.0863062687816987    0.1054645293300474
     0.6721425879294838    0.5874263314757655    0.1076946416454960
     0.4201941696257640    0.3311589749562385    0.0916863957327035
     0.4190079253484198    0.8367208275912001    0.0965971623534946
     0.9186917735845461    0.3273066287463591    0.0940065087893275
     0.9180465876445637    0.8301035173029975    0.0981862268583516
     0.3401848028719616    0.1739342949411443    0.6067994022233397
     0.3299957531786084    0.6650419413033624    0.6180126208536463
     0.8384620575390629    0.1712753430961502    0.6083445319915032
     0.8319057217582219    0.6678085889110897    0.6159343382571176
     0.2651678764347887    0.0254723766460450    0.8375018864319287
     0.2595703601660447    0.5224262028213210    0.8520122770137935
     0.7620007954453334    0.0236468715860312    0.8404802398710699
     0.7618648225973932    0.5247137777564388    0.8491785050927187
     0.2622300636946170    0.2387756460099055    0.8368233452475620
     0.2484437670432532    0.7305595674279716    0.8544150094281397
     0.7611106462313632    0.2373148570982775    0.8389955591055744
     0.7516623152646015    0.7340860810354793    0.8515209419428973
     0.3307188247915538    0.4108821240758311    0.5969495198954564
     0.3229297904799113    0.9077300306668067    0.5927429982711845
     0.8282288464118492    0.4100331323523910    0.5989989831182974
     0.8244768607031050    0.9109109197105836    0.5910344358503219
     0.2368360014936953    0.2562361416639641    0.3420796781516252
     0.2301364985553494    0.7481431278279993    0.3497267620914071
     0.7374742412634937    0.2588670964180511    0.3409877332106388
     0.7327011185912852    0.7540026711149158    0.3463710195866181
     0.0178579813960068    0.2558717283883682    0.3351588727062920
     0.0197064907533414    0.7584072098300506    0.3384458311084584
     0.5183269043644448    0.2581444965571070    0.3336111735010486
     0.5189645407117910    0.7593386679551427    0.3388782482286448
     0.0899568029859042    0.1710766970580945    0.5945057081551179
     0.0796686482602051    0.6609403124960800    0.6046673866343502
     0.5884566618025264    0.1690242035520099    0.5941386937084400
     0.5813254480320948    0.6627998828963323    0.6034404071750363
     0.0005834775040995    1.0004038020826886    0.8017598123007026
     0.9922466398423263    0.4927875482742867    0.8178147071533429
     0.4992904455986190    0.9999374168645840    0.8029250806444548
     0.4937986156503615    0.4945316680048004    0.8165983634065779
    -0.0001839553114579   -0.0016450534090909    0.3082053209810922
     0.9969443784812622    0.4958923147985008    0.3032302929239921
     0.4992985589760293    0.0007625977586722    0.3085579035656859
     0.4979616875844371    0.4982865395947421    0.3019262500680904
     0.1665950965674175    0.3336882055002128    0.1032488247024023
     0.1683997174628643    0.8336936390060170    0.1072702933020376
     0.6674513853816658    0.3360683368449532    0.1021846874533088
     0.6677092086209937    0.8365084774535502    0.1074426575775672
     0.4849109157394051    0.2521197029940494    0.8434296662346733
     0.4776767025722830    0.7484395757219883    0.8538503186336635
     0.9829029097945411    0.2481647159298146    0.8451561749077430
     0.9803747599610385    0.7487128505396176    0.8530036787122762
     0.0783019201744749    0.4170777719936841    0.6064920184335117
     0.0936385015315985    0.9204118918948849    0.5948403480323188
     0.5792669992107191    0.4187011461214556    0.6051450897719763
     0.5927122940397136    0.9178021514896650    0.5987674261895772
     0.2313309120520067    0.4735500747393369    0.3494282793473216
     0.2399901674709916    0.9760837391377187    0.3422928841063420
     0.7316128325427357    0.4761615380238761    0.3492977741551526
     0.7363054023655002    0.9790294480948050    0.3454310799531802
     0.4207288002048747    0.0948814765716381    0.0918654525832140
     0.4194060773154512    0.5942087461413901    0.0969234823167483
     0.9210215054148010    0.0907872089887702    0.0921531816877872
     0.9212579551022232    0.5904909911365446    0.0950685783253705

  0.00000000E+00  0.00000000E+00  0.00000000E+00
  0.00000000E+00  0.00000000E+00  0.00000000E+00
  0.00000000E+00  0.00000000E+00  0.00000000E+00
  0.00000000E+00  0.00000000E+00  0.00000000E+00
  0.00000000E+00  0.00000000E+00  0.00000000E+00
  0.00000000E+00  0.00000000E+00  0.00000000E+00
  0.00000000E+00  0.00000000E+00  0.00000000E+00
  0.00000000E+00  0.00000000E+00  0.00000000E+00
  0.00000000E+00  0.00000000E+00  0.00000000E+00
  0.00000000E+00  0.00000000E+00  0.00000000E+00
  0.00000000E+00  0.00000000E+00  0.00000000E+00
  0.00000000E+00  0.00000000E+00  0.00000000E+00
  0.00000000E+00  0.00000000E+00  0.00000000E+00
  0.00000000E+00  0.00000000E+00  0.00000000E+00
  0.00000000E+00  0.00000000E+00  0.00000000E+00
  0.00000000E+00  0.00000000E+00  0.00000000E+00
  0.00000000E+00  0.00000000E+00  0.00000000E+00
  0.00000000E+00  0.00000000E+00  0.00000000E+00
  0.00000000E+00  0.00000000E+00  0.00000000E+00
  0.00000000E+00  0.00000000E+00  0.00000000E+00
  0.00000000E+00  0.00000000E+00  0.00000000E+00
  0.00000000E+00  0.00000000E+00  0.00000000E+00
  0.00000000E+00  0.00000000E+00  0.00000000E+00
  0.00000000E+00  0.00000000E+00  0.00000000E+00
  0.00000000E+00  0.00000000E+00  0.00000000E+00
  0.00000000E+00  0.00000000E+00  0.00000000E+00
  0.00000000E+00  0.00000000E+00  0.00000000E+00
  0.00000000E+00  0.00000000E+00  0.00000000E+00
  0.00000000E+00  0.00000000E+00  0.00000000E+00
  0.00000000E+00  0.00000000E+00  0.00000000E+00
  0.00000000E+00  0.00000000E+00  0.00000000E+00
  0.00000000E+00  0.00000000E+00  0.00000000E+00
  0.00000000E+00  0.00000000E+00  0.00000000E+00
  0.00000000E+00  0.00000000E+00  0.00000000E+00
  0.00000000E+00  0.00000000E+00  0.00000000E+00
  0.00000000E+00  0.00000000E+00  0.00000000E+00
  0.00000000E+00  0.00000000E+00  0.00000000E+00
  0.00000000E+00  0.00000000E+00  0.00000000E+00
  0.00000000E+00  0.00000000E+00  0.00000000E+00
  0.00000000E+00  0.00000000E+00  0.00000000E+00
  0.00000000E+00  0.00000000E+00  0.00000000E+00
  0.00000000E+00  0.00000000E+00  0.00000000E+00
  0.00000000E+00  0.00000000E+00  0.00000000E+00
  0.00000000E+00  0.00000000E+00  0.00000000E+00
  0.00000000E+00  0.00000000E+00  0.00000000E+00
  0.00000000E+00  0.00000000E+00  0.00000000E+00
  0.00000000E+00  0.00000000E+00  0.00000000E+00
  0.00000000E+00  0.00000000E+00  0.00000000E+00
  0.00000000E+00  0.00000000E+00  0.00000000E+00
  0.00000000E+00  0.00000000E+00  0.00000000E+00
  0.00000000E+00  0.00000000E+00  0.00000000E+00
  0.00000000E+00  0.00000000E+00  0.00000000E+00
  0.00000000E+00  0.00000000E+00  0.00000000E+00
  0.00000000E+00  0.00000000E+00  0.00000000E+00
  0.00000000E+00  0.00000000E+00  0.00000000E+00
  0.00000000E+00  0.00000000E+00  0.00000000E+00
  0.00000000E+00  0.00000000E+00  0.00000000E+00
  0.00000000E+00  0.00000000E+00  0.00000000E+00
  0.00000000E+00  0.00000000E+00  0.00000000E+00
  0.00000000E+00  0.00000000E+00  0.00000000E+00
  0.00000000E+00  0.00000000E+00  0.00000000E+00
  0.00000000E+00  0.00000000E+00  0.00000000E+00
  0.00000000E+00  0.00000000E+00  0.00000000E+00
  0.00000000E+00  0.00000000E+00  0.00000000E+00
  0.00000000E+00  0.00000000E+00  0.00000000E+00
  0.00000000E+00  0.00000000E+00  0.00000000E+00
  0.00000000E+00  0.00000000E+00  0.00000000E+00
  0.00000000E+00  0.00000000E+00  0.00000000E+00
  0.00000000E+00  0.00000000E+00  0.00000000E+00
  0.00000000E+00  0.00000000E+00  0.00000000E+00
  0.00000000E+00  0.00000000E+00  0.00000000E+00
  0.00000000E+00  0.00000000E+00  0.00000000E+00
  0.00000000E+00  0.00000000E+00  0.00000000E+00
  0.00000000E+00  0.00000000E+00  0.00000000E+00
  0.00000000E+00  0.00000000E+00  0.00000000E+00
  0.00000000E+00  0.00000000E+00  0.00000000E+00
  0.00000000E+00  0.00000000E+00  0.00000000E+00
  0.00000000E+00  0.00000000E+00  0.00000000E+00
  0.00000000E+00  0.00000000E+00  0.00000000E+00
  0.00000000E+00  0.00000000E+00  0.00000000E+00
  0.00000000E+00  0.00000000E+00  0.00000000E+00
  0.00000000E+00  0.00000000E+00  0.00000000E+00
  0.00000000E+00  0.00000000E+00  0.00000000E+00
  0.00000000E+00  0.00000000E+00  0.00000000E+00
  0.00000000E+00  0.00000000E+00  0.00000000E+00
  0.00000000E+00  0.00000000E+00  0.00000000E+00
  0.00000000E+00  0.00000000E+00  0.00000000E+00
  0.00000000E+00  0.00000000E+00  0.00000000E+00
  0.00000000E+00  0.00000000E+00  0.00000000E+00
  0.00000000E+00  0.00000000E+00  0.00000000E+00
  0.00000000E+00  0.00000000E+00  0.00000000E+00
  0.00000000E+00  0.00000000E+00  0.00000000E+00
  0.00000000E+00  0.00000000E+00  0.00000000E+00
  0.00000000E+00  0.00000000E+00  0.00000000E+00
  0.00000000E+00  0.00000000E+00  0.00000000E+00
  0.00000000E+00  0.00000000E+00  0.00000000E+00
  0.00000000E+00  0.00000000E+00  0.00000000E+00
  0.00000000E+00  0.00000000E+00  0.00000000E+00
  0.00000000E+00  0.00000000E+00  0.00000000E+00
  0.00000000E+00  0.00000000E+00  0.00000000E+00
  0.00000000E+00  0.00000000E+00  0.00000000E+00
  0.00000000E+00  0.00000000E+00  0.00000000E+00
  0.00000000E+00  0.00000000E+00  0.00000000E+00
  0.00000000E+00  0.00000000E+00  0.00000000E+00
  0.00000000E+00  0.00000000E+00  0.00000000E+00
  0.00000000E+00  0.00000000E+00  0.00000000E+00
