System
1.0
9.897317950528732 -0.0029271268046785 -0.0007080970859342
0.0041209076868966 12.699359464741258 -0.0001603373987241
0.0006672815599464 0.000126383522056 9.369809233586876
Li Fe P O 
2 16 16 64 
direct
0.2298681082345621 0.1278682168445484 0.1718397903025798 Li
0.7335536700482757 0.1275649077772069 0.177287402242615 Li
0.0056000949788691 0.0039226720145045 0.987830771072149 Fe
0.0095826590211944 0.5048756596948185 0.0010746239444088 Fe
0.503584342510522 0.002631847199224 0.9883232229449171 Fe
0.5128330859884334 0.5076070700944302 -0.0125033050694167 Fe
0.9926311018187558 0.2658536849448398 0.9957664839733829 Fe
0.9776841001087637 0.7546834049795487 0.0256091894982518 Fe
0.4944302079367597 0.253923949906481 1.0001132948569613 Fe
0.4843881775980959 0.7632187777907531 0.0068503758997837 Fe
0.2626994557253083 0.9964906249540727 0.509966736036292 Fe
0.2388042556892516 0.5022328845278449 0.4825244558212153 Fe
0.7648105541512659 0.9869593782736181 0.5133100860333596 Fe
0.7368744744092067 0.506524543834316 0.4912624941770083 Fe
0.2613825416702267 0.2567181020000266 0.5135372391179951 Fe
0.2588014031604485 0.7520900682903049 0.5046131104959779 Fe
0.755197578379569 0.2524584608637312 0.5072270019753439 Fe
0.7426144942913759 0.7472945932119981 0.4953072739220317 Fe
0.2653295946000516 0.1206841830559101 0.8243984228544063 P
0.272714286654331 0.6228208804997577 0.8195421239074253 P
0.7668160878512481 0.1286410238036525 0.8234019311151799 P
0.7709743113855603 0.6145119822257804 0.8289230431453811 P
0.0153910059670684 0.3726677724797172 0.6693198339081674 P
0.0227043439849176 0.8765111533018124 0.680759428532885 P
0.5178894655861468 0.3734017793711274 0.6749078630539449 P
0.5201636549570553 0.8663318453444949 0.6735001996397719 P
0.4821697933734272 0.1305709407477813 0.3292476821503625 P
0.4782754063394442 0.6215395953385215 0.3184443136398717 P
0.9825795621554005 0.1243234246758563 0.326991637333389 P
0.9791984258065385 0.6306253861038399 0.3309657701000621 P
0.2361902693732124 0.3732171436649059 0.1751854836036824 P
0.2284730815630838 0.8771879319286884 0.1790234991105226 P
0.7319623409334148 0.3695204958558722 0.1766266447448299 P
0.7288469625778397 0.8852616242864343 0.1757352286751697 P
0.1141383278539827 0.1239526023460233 0.884565013290774 O
0.1209930267255395 0.6202742420695141 0.8620544941419728 O
0.6183205898602223 0.1323723618257653 0.8803134021115536 O
0.6197933388242065 0.6178105002062731 0.881558510789839 O
0.0335378738244811 0.3689967344712151 0.8364774459449262 O
0.0312920286379929 0.8793588293990705 0.8502834462624083 O
0.5305265607281147 0.373346387438442 0.8454032239344075 O
0.5259319342125883 0.870621535223451 0.8415088510530141 O
0.277510486788531 0.1269985605404583 0.6533290419321592 O
0.2834657969580912 0.6248717326830665 0.646820880848505 O
0.7801934516345882 0.1245316838204316 0.653192904477084 O
0.7911659965283993 0.6165049595816297 0.6594545637154863 O
0.3661368972076403 0.3712996808757306 0.6214801052151231 O
0.3671167650820176 0.8729875754358586 0.6112859052237536 O
0.8648058998311497 0.369350359974836 0.6147200723094262 O
0.8731561472817324 0.882264056680208 0.6268187233941702 O
0.0923111760844747 0.2788036042921411 0.6051451034073687 O
0.0899143477649652 0.77303293123534 0.6272767156579541 O
0.5927441229272499 0.2758106180875635 0.6179273364264839 O
0.5815634267306193 0.7640815256233857 0.6206921484430792 O
0.0828769372860849 0.4764564163223821 0.6151418873069834 O
0.1026354212893652 0.9701086744300076 0.6196400987229412 O
0.587312822035249 0.4728893980935823 0.6167085518533089 O
0.5968397491038125 0.9633455196402143 0.6145150048028463 O
0.4115131575702289 0.0310735013290424 0.3878060297124665 O
0.400803578501897 0.5241994759413627 0.3730604960421974 O
0.9124371327424493 0.026297891616434 0.3885350502556561 O
0.9030241158830553 0.5326498320086156 0.386765677758187 O
0.1588504523395273 0.2733931343479551 0.1196163294818171 O
0.147153894216673 0.7843703179334811 0.1193804901946153 O
0.660806898275375 0.2674529009702188 0.1223223783953492 O
0.6491352875918597 0.7919280800493183 0.1128968945467594 O
0.1364095592024358 0.1256574738749487 0.3660105549640318 O
0.131513119014844 0.623541072510132 0.3904058109633353 O
0.6357019030827183 0.1319944426596988 0.3690674930523774 O
0.627568563403724 0.6158819014493991 0.3755808483887649 O
0.2211960106930698 0.3725827762697831 0.3471564206444263 O
0.2203704102844958 0.8765281732983378 0.3493738017130657 O
0.7188522727373734 0.3743368780627487 0.3463721735560442 O
0.7214295402031653 0.8819310599894803 0.3431069887918202 O
0.4534378317658126 0.1324288827266973 0.1612498830568253 O
0.4714047672599907 0.6259944923873284 0.1485890083160849 O
0.9583114741335822 0.1239486762731252 0.156050622056283 O
0.9706047164560907 0.6308787595922288 0.1623177548051905 O
0.3862492172254414 0.3653398255809437 0.118833912884957 O
0.377085772336454 0.8706152321280568 0.1221952492263068 O
0.8821926695585075 0.3655662098979221 0.123515706857438 O
0.8802078667848117 0.8775039798944376 0.1153776317692214 O
0.3390029775667754 0.2180976800047004 0.8853387240778468 O
0.3415154495979626 0.7220008080056656 0.8797933418533848 O
0.8418655770547153 0.2267583211370186 0.8791486521931382 O
0.8459372512145713 0.7141802010718862 0.8856704346106166 O
0.1698036221777892 0.4734532227748914 0.1225981982667115 O
0.1629579788353443 0.9816376024194993 0.1244164588894471 O
0.65649552345982 0.4646386903420902 0.1145903732981492 O
0.6687059376991036 0.9902020017393048 0.1229660376575826 O
0.410393229677242 0.2271599082394338 0.3922037763432496 O
0.4068773784057693 0.7206347244956397 0.3774333574762077 O
0.9067265374395775 0.2217696716064031 0.3830902386939818 O
0.9166860646065003 0.7311213935706641 0.388423249295424 O
0.3317325020721726 0.019601722221236 0.8739491291559733 O
0.3493619700691588 0.5258731867970395 0.8761034318534531 O
0.8406886477256401 0.0308673969231821 0.8835126322780305 O
0.841254129749948 0.5162553973054597 0.8844549286155721 O
