System
1.0
10.362654199567075 0.6680397148495248 5.890074447848777
3.510047580411978 10.073208645045039 5.577995800114263
-0.2770176937874708 0.4281704396772118 11.509736570530237
Li Mn O 
3 32 64 
direct
0.4365835938177425 0.9346785412557349 0.4435101390378983 Li
0.9342281958261242 0.4363834889525359 0.935534452171241 Li
0.9379393640749389 0.9376177542988194 0.9373309632121055 Li
0.2453574647126623 0.2437744760633252 0.0040675333518837 Mn
0.2407152608562521 0.2441635089247086 0.5070067335423184 Mn
0.249077972011509 0.742284161559537 0.003875667016009 Mn
0.2553506317123807 0.7518226733875393 0.4997335354688835 Mn
0.7464916730075786 0.2512637442899231 0.0009682727956067 Mn
0.7466426236875529 0.2522382899619576 0.4999157775067611 Mn
0.75332235096357 0.752321273027112 0.9964078179889472 Mn
0.7587209056961024 0.7590980044815357 0.4961903158813201 Mn
0.2489556717209753 0.998323398534967 0.2500300460722639 Mn
0.2448022055533111 0.9950888833166146 0.7573999802548246 Mn
0.2439901381014563 0.4958348860420889 0.2577410486960952 Mn
0.2505154379162446 0.4975317185995995 0.7477670809435887 Mn
0.7525946384950254 0.0060551320252918 0.2468488299056118 Mn
0.7515335770190931 0.0018720814889284 0.7469925561285533 Mn
0.751760738224462 0.5028501751895621 0.2489607677623955 Mn
0.7540452857399053 0.5061677825762279 0.7417880045046253 Mn
0.9978976062455689 0.2488000081092487 0.2525937429599923 Mn
0.9948342037958784 0.2447364836746759 0.7530107407773179 Mn
0.0021692076235499 0.7511078748598512 0.249895331629662 Mn
0.006729527417853 0.7526199143847128 0.7442231657669831 Mn
0.4971249297183241 0.2500368634821486 0.2543439538282452 Mn
0.4958777983676813 0.2437378101567221 0.7524950989362426 Mn
0.503379692864108 0.75175345215468 0.2462158109756296 Mn
0.5064087920356349 0.7542535630905378 0.7482106435485206 Mn
0.2431301534215307 0.245866674887112 0.2565159744755678 Mn
0.2439169642216312 0.2411451412673125 0.7579926813784298 Mn
0.2527198492193179 0.7465094856812715 0.2511040088298918 Mn
0.2518584849829061 0.7468417975115953 0.7507997664331851 Mn
0.7513227523069538 0.2548194058150501 0.2437015896618928 Mn
0.7422090530322011 0.2488688737019672 0.7549398462431426 Mn
0.7528820256988563 0.7525886027706552 0.2482976181015145 Mn
0.7597178857814962 0.7582640931990655 0.7363062950392835 Mn
0.1338462319453921 0.1324031444054359 0.3528246364699018 O
0.1314057594849483 0.1282908702003421 0.8564002233675361 O
0.1379980764651861 0.634323058924135 0.3526185873345984 O
0.1403258156012221 0.6381502327076705 0.8461273393985974 O
0.6441967075591493 0.1388933056970693 0.3464496735007488 O
0.6350619095838629 0.1315308603378743 0.8514372347516724 O
0.64180153458514 0.6384254150867599 0.3473138781943624 O
0.651528783128731 0.644999544176239 0.8393285601440952 O
0.124175717760146 0.3462431413668523 0.1366089322892967 O
0.1190987724055939 0.343342207124138 0.6429363710322735 O
0.1306457784087279 0.8456681949525889 0.1360644832052883 O
0.1294440507632047 0.852521785043208 0.6330085008619987 O
0.6430256096256618 0.3576580567996466 0.1212636592049195 O
0.618955040016097 0.3479314799784413 0.6397189450524274 O
0.6299024763221951 0.8511622362124803 0.1317606455782036 O
0.6493283942694607 0.8656477965456882 0.616974825299471 O
0.3458523879541491 0.1248162368638281 0.1425572238956739 O
0.3431174345087193 0.1195459734909685 0.6444720747759916 O
0.3483519405696531 0.6187375882463301 0.1432855955812538 O
0.3585073739855992 0.6435385532871217 0.6273470617366288 O
0.852219663031435 0.1289111153552806 0.135461929864249 O
0.8459983042924634 0.1303549230885676 0.637781811666091 O
0.8516788521633282 0.629222883380778 0.1373966212609737 O
0.8659992150246768 0.6486768066603276 0.6185298278550875 O
0.1321467064264292 0.134107179069429 0.1303624119185758 O
0.1280640418252857 0.1317039753749308 0.6339882961465552 O
0.1319399236089802 0.6349888224711239 0.1317242818565409 O
0.1395386753105417 0.6447109130501524 0.6196945584399014 O
0.6380283259811005 0.1395258874831939 0.1257213393759466 O
0.6346808626163161 0.1374087583480282 0.6253293870848559 O
0.6388919156237788 0.6414199790013112 0.1225123631333049 O
0.6451385295444356 0.6513202689058243 0.6145691518329495 O
0.35502435811036 0.3620582247706633 0.1542024227229679 O
0.3558933048799827 0.3528469780490993 0.6566128723103783 O
0.3632995469964199 0.8635053795191983 0.1496304417576513 O
0.3595608364394509 0.86609223975282 0.6517456019297567 O
0.8654539714050334 0.3696153801540632 0.1445483710302712 O
0.8563232962539189 0.3567412178009526 0.6552558746330659 O
0.8654807179260194 0.8684677669278189 0.1440988654013067 O
0.8698175576551902 0.8716847300018972 0.6453205967674869 O
0.3521352381177487 0.1377614138622769 0.3814283171850206 O
0.3697179535815525 0.1436431411872534 0.8700080134538916 O
0.3788124800708455 0.6520033524740805 0.3635911088056709 O
0.3589451824128954 0.6368643916621415 0.8779567680795269 O
0.8713366148568281 0.1539538986693978 0.3644274339519731 O
0.8691277472990899 0.1432998233641524 0.8687367560361972 O
0.8755652266520068 0.6559809376244564 0.3603017704783397 O
0.8812321133420982 0.6495952244266562 0.862211725215322 O
0.1432903675155422 0.3701791018527752 0.3664683518037144 O
0.1372780633928539 0.3527354873907383 0.8782375464011885 O
0.1543694088826964 0.8714334055492482 0.3599147920474779 O
0.1435637984876044 0.869189329696428 0.8686910137824264 O
0.6517356605965028 0.3784254159041624 0.3560229568747304 O
0.6365843801425846 0.3585478967268024 0.8767027654678763 O
0.6499784730524383 0.880496492586871 0.3573192108703357 O
0.656490921224483 0.8751220857139602 0.8584451196826827 O
0.3527155292836553 0.3556013141714356 0.3849197619473889 O
0.3620103750107392 0.3552053146498371 0.8783892411068855 O
0.370004091394639 0.8660328290787819 0.3697503000148977 O
0.3567066565157079 0.8566791070235068 0.8818084377456518 O
0.8634405276345459 0.3628310278641753 0.3737680853225345 O
0.8657401576166269 0.3591075834118367 0.8732835265725923 O
0.8721525236313177 0.8692652873496308 0.3633539004239654 O
0.8691088949838824 0.8650358599446055 0.8721198238412631 O
