System                                  
   1.0000000000000000     
    10.2852317212148616   -0.0002002927936414   -5.4002187051931321
    -2.8351896634306994    9.8867470578824275   -5.4002254834420542
     0.0099513128610022    0.0132069081834311   12.5149077806612770
  Mg              Mn              O             
     9    32    64
Direct
     0.1915031785250605    0.3131199492556225    0.3820239463006367
     0.1955268503718264    0.3204515633720258    0.8882671674515396
     0.1907840931115378    0.8144648464134832    0.3819910329189219
     0.1880444652361440    0.8131296265022355    0.8806008688337444
     0.6845571001102237    0.3126907295380748    0.3702855347820510
     0.6866500920771077    0.8113184748966780    0.8696500227463895
     0.8089416250932266    0.1832969920750538    0.1093654024256243
     0.8117824202720594    0.1911165077903444    0.6256461958847722
     0.8121637312432325    0.6888554107928989    0.1288899094205456
     0.9956228120566833    0.9992032461891657    0.2457408559861877
     0.9978455139471535    0.9995476628351674    0.7498374870968242
     0.0022136181894889    0.4971616311382674    0.2502265438403568
     0.0078521041459513    0.5082855443517067    0.7652066684033600
     0.4997625360816625    0.9974455214634619    0.2494166797315337
     0.4946720594360555    0.0043116368517137    0.7450167183559521
     0.4908268297844238    0.4955977449022496    0.2393460368745917
     0.5058598749508184    0.5038531299884539    0.7600861093881611
     0.9994793343896902    0.2483543495701670    0.9983031397974980
     0.9985351109304730    0.2497320806689730    0.4972417593389736
     0.0078160719141198    0.7500232630060398    0.0126506765449275
     0.9957433500402640    0.7473054395897780    0.4975823218680330
     0.5029651829486237    0.2500415759956227    0.0038250455192939
     0.5003105727951910    0.2526718083629498    0.5024838963311863
     0.5009089497528720    0.7507882550841170    0.0032279307254928
     0.4967499060774562    0.7413715355219596    0.4820723226713319
     0.2594707997249940    0.0033580640024967    0.2619914825663647
     0.2577974944162584    0.0124324995546170    0.7671429623857573
     0.2536949060003071    0.4968689918805781    0.2482566230444588
     0.2600432771697060    0.5098511815802556    0.7716618783637367
     0.7441387885541206    0.9975797207313711    0.2396222132174697
     0.7426883917181019    0.9947022492426786    0.7369599925019465
     0.7452810120624463    0.4934576241242469    0.2381708786622181
     0.7518054954427811    0.5041613945663300    0.7552799256965023
     0.9966751440899622    0.9936385906554936    0.9902635177364777
     0.0016498710042968    0.0031249732042037    0.5039944103620473
     0.0074354961292113    0.5080416210208671    0.0155194149711204
     0.9922796199962312    0.4931065825924154    0.4880909706258438
     0.4957455434478084   -0.0053069228516619   -0.0078470850354958
     0.5010756604916634    0.0007820874129669    0.5008787865253012
     0.5066486173126490    0.5089553877130726    0.0111348690922532
     0.4940459110620486    0.4901670402816548    0.4819467986573506
     0.3722618788381261    0.3883412927765045    0.2426475925430424
     0.4018830618247398    0.4141509454179474    0.8048290111810608
     0.3943608813880182    0.9052815579430674    0.2892429616528148
     0.3790498708080026    0.9061778790615032    0.7603795194828146
     0.8729347509258192    0.3822497409520172    0.2410881517074769
     0.8805759261949334    0.3928745989950512    0.7607155829284874
     0.8739722321182397    0.8884491097643080    0.2467452701578892
     0.8745658178938327    0.8965002141187137    0.7541763965551970
     0.3683200578577310    0.1039940552951856    0.4669018381896240
     0.3801412069501523    0.1171270737110036    0.9809992844585346
     0.3690677819061925    0.6018449778841141    0.4522651352806245
     0.3992164228168121    0.6297822953296746    0.0089858181428868
     0.8854286593779185    0.1245969517611949    0.4961515405567528
     0.8667867143628817    0.1093130576028744    0.9673769838446661
     0.8601737022798044    0.5963846076896201    0.4465408961236069
     0.8911873615519712    0.6304383321513924    0.0089849781514672
     0.0839428549903095    0.0992320180857038    0.4490892938011624
     0.0875727731400561    0.1031515763619027    0.9594514244087256
     0.0859489009329003    0.6029690026935600    0.4559638985427409
     0.1089960317213465    0.6271027559417552    0.0057127648641571
     0.6103876999759510    0.1263646388649248    0.5014171391332873
     0.6105880449701476    0.1266541047578674    0.9987201314652121
     0.5882285046921485    0.5967358801839188    0.4444658896318424
     0.6154730940112874    0.6288034614918605    0.0071804091045519
     0.1230586785481778    0.1076192167899921    0.2465966472357364
     0.1259891864628604    0.1177766489560477    0.7565489299250706
     0.1265025909705352    0.6108689504801625    0.2539155913586625
     0.1241181188427206    0.6125600937646541    0.7503889714620846
     0.6214179856555129    0.1111019772280548    0.2441495916787052
     0.6036807822146485    0.0930376412683120    0.7087449415757263
     0.6128069767146770    0.5930946704798801    0.2205012392305262
     0.6242117516862665    0.6128203206629294    0.7467380096730972
     0.1244258051504042    0.3840050177928491    0.2488325394986429
     0.1257127979885682    0.3879342839741926    0.7536406912244805
     0.1140022799890026    0.8762996588685547    0.2347592223160398
     0.1250877995362310    0.8907855868466865    0.7535902198548372
     0.6124578035757066    0.3699735302775246    0.2230579028771236
     0.6122409035654482    0.3805111740887469    0.7228425093776113
     0.6077315786855713    0.8728992415079332    0.2106805921426714
     0.6238386605183087    0.8887681068006582    0.7448142764666732
     0.1299218852704231    0.3866851509294680    0.0273194837600302
     0.1142632791619477    0.3772827799586553    0.5055410963579411
     0.1299189180024268    0.8854028147122291    0.0292264911617531
     0.1210286460782542    0.8840076649861877    0.5156295794015866
     0.6259997216935180    0.3883894688330404    0.0309276896651955
     0.6151680878325252    0.3772669012136492    0.5000000904157980
     0.6123079408517422    0.8751578870667046    0.9977531766479599
     0.6287092044286825    0.8928698960595252    0.5316791425401634
     0.3827677367531093    0.1146005802638567    0.2705047598934650
     0.3964296119696371    0.1436116476858433    0.7984891623748154
     0.3716749130353252    0.6028533296733976    0.2430843541640620
     0.3988447072430336    0.6328297857565879    0.7973124421552562
     0.8737186663247679    0.1101266881693657    0.2401167610476026
     0.8738580026638119    0.1130479507970673    0.7495335370920395
     0.8737933729217069    0.6060531743464589    0.2448198534597200
     0.9043878681247004    0.6429463888983425    0.8091269194660666
     0.3986854812007543    0.3862741852442779    0.0222245926711548
     0.3907981289372703    0.3771887536784829    0.5028840107597674
     0.3892277035351928    0.8742262168567000    0.0028418650172267
     0.3913571543616678    0.8749123349011468    0.4997203507816641
     0.9144993515313476    0.3936254297369736    0.0432646537487161
     0.8867703836731532    0.3756733886644153    0.5015441831864459
     0.8984751192386652    0.8879549141136381    0.0247870154302710
     0.9140491081601969    0.8977807667860683    0.5441320832591361

  0.00000000E+00  0.00000000E+00  0.00000000E+00
  0.00000000E+00  0.00000000E+00  0.00000000E+00
  0.00000000E+00  0.00000000E+00  0.00000000E+00
  0.00000000E+00  0.00000000E+00  0.00000000E+00
  0.00000000E+00  0.00000000E+00  0.00000000E+00
  0.00000000E+00  0.00000000E+00  0.00000000E+00
  0.00000000E+00  0.00000000E+00  0.00000000E+00
  0.00000000E+00  0.00000000E+00  0.00000000E+00
  0.00000000E+00  0.00000000E+00  0.00000000E+00
  0.00000000E+00  0.00000000E+00  0.00000000E+00
  0.00000000E+00  0.00000000E+00  0.00000000E+00
  0.00000000E+00  0.00000000E+00  0.00000000E+00
  0.00000000E+00  0.00000000E+00  0.00000000E+00
  0.00000000E+00  0.00000000E+00  0.00000000E+00
  0.00000000E+00  0.00000000E+00  0.00000000E+00
  0.00000000E+00  0.00000000E+00  0.00000000E+00
  0.00000000E+00  0.00000000E+00  0.00000000E+00
  0.00000000E+00  0.00000000E+00  0.00000000E+00
  0.00000000E+00  0.00000000E+00  0.00000000E+00
  0.00000000E+00  0.00000000E+00  0.00000000E+00
  0.00000000E+00  0.00000000E+00  0.00000000E+00
  0.00000000E+00  0.00000000E+00  0.00000000E+00
  0.00000000E+00  0.00000000E+00  0.00000000E+00
  0.00000000E+00  0.00000000E+00  0.00000000E+00
  0.00000000E+00  0.00000000E+00  0.00000000E+00
  0.00000000E+00  0.00000000E+00  0.00000000E+00
  0.00000000E+00  0.00000000E+00  0.00000000E+00
  0.00000000E+00  0.00000000E+00  0.00000000E+00
  0.00000000E+00  0.00000000E+00  0.00000000E+00
  0.00000000E+00  0.00000000E+00  0.00000000E+00
  0.00000000E+00  0.00000000E+00  0.00000000E+00
  0.00000000E+00  0.00000000E+00  0.00000000E+00
  0.00000000E+00  0.00000000E+00  0.00000000E+00
  0.00000000E+00  0.00000000E+00  0.00000000E+00
  0.00000000E+00  0.00000000E+00  0.00000000E+00
  0.00000000E+00  0.00000000E+00  0.00000000E+00
  0.00000000E+00  0.00000000E+00  0.00000000E+00
  0.00000000E+00  0.00000000E+00  0.00000000E+00
  0.00000000E+00  0.00000000E+00  0.00000000E+00
  0.00000000E+00  0.00000000E+00  0.00000000E+00
  0.00000000E+00  0.00000000E+00  0.00000000E+00
  0.00000000E+00  0.00000000E+00  0.00000000E+00
  0.00000000E+00  0.00000000E+00  0.00000000E+00
  0.00000000E+00  0.00000000E+00  0.00000000E+00
  0.00000000E+00  0.00000000E+00  0.00000000E+00
  0.00000000E+00  0.00000000E+00  0.00000000E+00
  0.00000000E+00  0.00000000E+00  0.00000000E+00
  0.00000000E+00  0.00000000E+00  0.00000000E+00
  0.00000000E+00  0.00000000E+00  0.00000000E+00
  0.00000000E+00  0.00000000E+00  0.00000000E+00
  0.00000000E+00  0.00000000E+00  0.00000000E+00
  0.00000000E+00  0.00000000E+00  0.00000000E+00
  0.00000000E+00  0.00000000E+00  0.00000000E+00
  0.00000000E+00  0.00000000E+00  0.00000000E+00
  0.00000000E+00  0.00000000E+00  0.00000000E+00
  0.00000000E+00  0.00000000E+00  0.00000000E+00
  0.00000000E+00  0.00000000E+00  0.00000000E+00
  0.00000000E+00  0.00000000E+00  0.00000000E+00
  0.00000000E+00  0.00000000E+00  0.00000000E+00
  0.00000000E+00  0.00000000E+00  0.00000000E+00
  0.00000000E+00  0.00000000E+00  0.00000000E+00
  0.00000000E+00  0.00000000E+00  0.00000000E+00
  0.00000000E+00  0.00000000E+00  0.00000000E+00
  0.00000000E+00  0.00000000E+00  0.00000000E+00
  0.00000000E+00  0.00000000E+00  0.00000000E+00
  0.00000000E+00  0.00000000E+00  0.00000000E+00
  0.00000000E+00  0.00000000E+00  0.00000000E+00
  0.00000000E+00  0.00000000E+00  0.00000000E+00
  0.00000000E+00  0.00000000E+00  0.00000000E+00
  0.00000000E+00  0.00000000E+00  0.00000000E+00
  0.00000000E+00  0.00000000E+00  0.00000000E+00
  0.00000000E+00  0.00000000E+00  0.00000000E+00
  0.00000000E+00  0.00000000E+00  0.00000000E+00
  0.00000000E+00  0.00000000E+00  0.00000000E+00
  0.00000000E+00  0.00000000E+00  0.00000000E+00
  0.00000000E+00  0.00000000E+00  0.00000000E+00
  0.00000000E+00  0.00000000E+00  0.00000000E+00
  0.00000000E+00  0.00000000E+00  0.00000000E+00
  0.00000000E+00  0.00000000E+00  0.00000000E+00
  0.00000000E+00  0.00000000E+00  0.00000000E+00
  0.00000000E+00  0.00000000E+00  0.00000000E+00
  0.00000000E+00  0.00000000E+00  0.00000000E+00
  0.00000000E+00  0.00000000E+00  0.00000000E+00
  0.00000000E+00  0.00000000E+00  0.00000000E+00
  0.00000000E+00  0.00000000E+00  0.00000000E+00
  0.00000000E+00  0.00000000E+00  0.00000000E+00
  0.00000000E+00  0.00000000E+00  0.00000000E+00
  0.00000000E+00  0.00000000E+00  0.00000000E+00
  0.00000000E+00  0.00000000E+00  0.00000000E+00
  0.00000000E+00  0.00000000E+00  0.00000000E+00
  0.00000000E+00  0.00000000E+00  0.00000000E+00
  0.00000000E+00  0.00000000E+00  0.00000000E+00
  0.00000000E+00  0.00000000E+00  0.00000000E+00
  0.00000000E+00  0.00000000E+00  0.00000000E+00
  0.00000000E+00  0.00000000E+00  0.00000000E+00
  0.00000000E+00  0.00000000E+00  0.00000000E+00
  0.00000000E+00  0.00000000E+00  0.00000000E+00
  0.00000000E+00  0.00000000E+00  0.00000000E+00
  0.00000000E+00  0.00000000E+00  0.00000000E+00
  0.00000000E+00  0.00000000E+00  0.00000000E+00
  0.00000000E+00  0.00000000E+00  0.00000000E+00
  0.00000000E+00  0.00000000E+00  0.00000000E+00
  0.00000000E+00  0.00000000E+00  0.00000000E+00
  0.00000000E+00  0.00000000E+00  0.00000000E+00
  0.00000000E+00  0.00000000E+00  0.00000000E+00
