System
1.0
9.96074 0.00011 -6e-05
4e-05 12.94709 0.00158
4e-05 -0.00102 9.42854
Li Mn P O 
12 16 16 64 
direct
0.5188783013370396 0.6248160702824099 0.6758825802288131 Li
0.2332643387240588 0.1252249412619326 0.1654361136466276 Li
0.7330144244591944 0.1253784937812421 0.1673162530078614 Li
0.7375237032315989 0.6252351622264117 0.1725234509254335 Li
0.4876807334393937 0.3733806863977183 0.3347247132261502 Li
0.4873051946431903 0.8768678286646854 0.3341477715655725 Li
0.9829770745954758 0.3741389391953638 0.3295864278600391 Li
0.9829401257499878 0.8752606246656662 0.3292967434828894 Li
0.2664584887132813 0.3749813963630442 0.8270674247229246 Li
0.2659973804518801 0.8762475368410442 0.8265866268035318 Li
0.766895371672566 0.3739899449092842 0.8262894879906544 Li
0.7667333643022717 0.8764068689149469 0.825942903352663 Li
0.5023987029723882 0.2480461572469205 0.9928909300442459 Mn
0.5019623495047894 0.7501850254727045 0.9994403021040627 Mn
0.0026915679293508 0.2483662118491258 0.993052799198498 Mn
0.0035478686322674 0.7485507548968364 0.9937919539514521 Mn
0.2499160203701426 0.2483943594543715 0.5050322659288606 Mn
0.2477710267645986 0.747395882483842 0.5021682813766691 Mn
0.7519986163530329 0.24702032342351 0.5043525956790373 Mn
0.7533305351898306 0.7492307649570699 0.5059706389870023 Mn
0.0016669306447906 0.0014734380366287 0.9936938081003681 Mn
0.0032393120245168 0.500998210624429 0.9944833880231897 Mn
0.5013352050758672 0.0021136903648624 0.9932592021369377 Mn
0.501514248419898 0.4996476043714416 0.0002659977878343 Mn
0.2467433237251792 0.503800969023589 0.5008005165886174 Mn
0.2489210036756712 0.0022625398020376 0.5037969340334362 Mn
0.7533663020720848 0.5011665674875028 0.5055591197324515 Mn
0.7514893684706685 0.0032309825751021 0.5035082922006339 Mn
0.2395092009195987 0.3738329005969339 0.181864901558796 P
0.2391148150444436 0.8757689792798017 0.1811584369686456 P
0.7388843913399329 0.3746337477011489 0.1804054967949231 P
0.7384044512554222 0.8753480758839364 0.1799135442067928 P
0.0184343124129405 0.3771483724265565 0.6740808720590563 P
0.0179939476890756 0.8725312620059462 0.6747350253360229 P
0.513259467732857 0.3799811589030316 0.675798889367123 P
0.5129771720281681 0.8697103916334773 0.6762588761303585 P
0.2589142001175586 0.1259260704120916 0.8189764814319552 P
0.2609288108939554 0.6251617482342737 0.8226349642657305 P
0.7591570833597256 0.125457521026389 0.8210331692574219 P
0.7608019385062887 0.6247781949953382 0.8220241748092064 P
0.4826249973798984 0.1245826373598852 0.3236358264843448 P
0.4846155245564952 0.624972838498811 0.3219806745256533 P
0.9866328177141297 0.1245722490299814 0.3206248459447921 P
0.9883255578016384 0.6250463329554374 0.3203337905684355 P
0.0835713155090964 0.2804454659889645 0.6087812811483257 O
0.0832564177828058 0.7742966746227775 0.6157699660541709 O
0.5845925758217873 0.2883749934415803 0.6081551435307585 O
0.5723759238754369 0.7668380297732159 0.6223634723424122 O
0.171852796251692 0.2758924300501846 0.1222984540057771 O
0.1724342074534562 0.7766216626327455 0.1242036042657876 O
0.6703943135424915 0.276643156794328 0.1212673625661879 O
0.6722238692506722 0.7755167093648705 0.123444138321626 O
0.3273524192047306 0.2253629189803742 0.8750551603445781 O
0.3288621376623714 0.7247327662767961 0.8794055095649257 O
0.8275708844696863 0.2251368406909077 0.8767357668209718 O
0.826219224461461 0.7244198593019883 0.8797972195720423 O
0.4150412590262224 0.2231126537948364 0.3849115967052925 O
0.4173084332335282 0.7237798459692555 0.3820835934455548 O
0.9185349015098309 0.2232908310380434 0.3789017507802456 O
0.9217532730284859 0.7242888060580981 0.3772921220266078 O
0.32821355487668 0.025992812819263 0.8723802693586085 O
0.3293870811782744 0.5253685158049175 0.8780170949559568 O
0.8280348730276728 0.0253414843758613 0.8746768841560579 O
0.8261869446581267 0.5248758584310709 0.8787241339464631 O
0.4172872250826826 0.0255295446658936 0.3842378954071055 O
0.4183697276372029 0.5258638032430449 0.3818198649691553 O
0.9207220655155696 0.0253916137874039 0.3790516302846432 O
0.922567255712642 0.5254874981853856 0.3774232348519009 O
0.3925107277286164 0.3734777168289153 0.1443731111841381 O
0.3921487208353844 0.8758358315323458 0.143582785252787 O
0.8913585475766123 0.3737220137546839 0.1396397517253641 O
0.8908899623975867 0.8760949649751596 0.1390421453274734 O
0.2708504047872074 0.1267925339314649 0.6522057527910807 O
0.2884637908405369 0.6256138717733752 0.6564281940459255 O
0.7682999113533814 0.1260659101863162 0.6554145017941038 O
0.770190472221802 0.6251230196444054 0.6565436559906749 O
0.1120560863093524 0.1252687232092915 0.8780777422251689 O
0.1128806619415757 0.6248664381782134 0.874062432765696 O
0.6124821062591831 0.1251395839039743 0.8816706634610165 O
0.6085500630775538 0.6248485292175592 0.8708428787432481 O
0.1400470468501162 0.1254323936224785 0.3560887116129103 O
0.1421926423796105 0.6252995364819918 0.357156952044447 O
0.635944857357467 0.1255628087704856 0.3562341908737298 O
0.6373085171821464 0.6253076809174188 0.3581900114437985 O
0.0438149684619243 0.3740481797085602 0.8401522390590858 O
0.0428417760647722 0.874266883928837 0.8411035368037089 O
0.5388842417791412 0.3754957159464608 0.8419649124789762 O
0.5377900026154495 0.8738671683596831 0.8427636562580034 O
0.2144686353170751 0.3727456788869655 0.3500299104203869 O
0.2137430618072607 0.876271806748562 0.3488696335945966 O
0.715319401752324 0.37393713333321 0.3472393091163904 O
0.7146877441450912 0.8756691648606358 0.3464277789749206 O
0.1736894656513506 0.4732001891646604 0.1250783993960126 O
0.172691873292468 0.9740698959774567 0.1211664409782227 O
0.6731085620028594 0.4745262065515187 0.1239991051605198 O
0.6704495954249532 0.9735221248746609 0.1204594408184003 O
0.4537946963715602 0.1251541002756505 0.1583285768120285 O
0.4570844379307032 0.6251975365998462 0.1566212411027028 O
0.9602907369442656 0.1249062541774703 0.1545141583129544 O
0.9637493363997941 0.6250460422367026 0.1538901767764959 O
0.3594214304105069 0.3756279586184244 0.6380637885045561 O
0.3591698056592625 0.873533030058798 0.6379406607153327 O
0.8646001053196344 0.3760858160362546 0.638172993786985 O
0.8642563345211675 0.8728076070259527 0.6384729215088125 O
0.0835332561419864 0.4757277536582087 0.6172055918689529 O
0.0838955183079291 0.9696749674288966 0.6130525776821673 O
0.5725138581017135 0.4829315458979734 0.622271865328485 O
0.5849824391292731 0.9615418549802406 0.610666934360314 O
