System
1.0
9.897317950528732 -0.0029271268046785 -0.0007080970859342
0.0041209076868966 12.699359464741258 -0.0001603373987241
0.0006672815599464 0.000126383522056 9.369809233586876
Li Fe P O 
10 16 16 64 
direct
0.2353816263436649 0.125892424458091 0.1675298740492309 Li
0.7406225561587305 0.1235637538571275 0.1725043584384839 Li
0.4881166733471081 0.8709713102884707 0.3187236474034498 Li
0.9851908206012508 0.8731318743640372 0.3215780615837042 Li
0.0049699148120785 0.6229632477362521 0.6792499922053731 Li
0.5075212646752401 0.6239283448074189 0.6731723171193439 Li
0.2688056837549098 0.3723348397608086 0.841505941928642 Li
0.2642086820312187 0.8772775621280987 0.8286716855688478 Li
0.7755785860330123 0.3735535250685556 0.8378154935691854 Li
0.7642080882559689 0.8755349109219831 0.826820761414696 Li
0.9990368224293692 0.0044455482851368 0.9899577177523404 Fe
0.9945529583517169 0.497069064497816 0.0147836883226257 Fe
0.500967793709268 0.0042776011898264 0.991574616692839 Fe
0.4992383736537901 0.4981250676125926 0.0136118696797868 Fe
1.0014451453127229 0.2484974976632653 0.9988088789041897 Fe
-0.0061343956323574 0.7501677948711889 0.004010426796313 Fe
0.5029195699924811 0.2450676127866299 0.9980146808225692 Fe
0.5014503126673898 0.7501064347129416 5.12855822522e-05 Fe
0.2504965929219938 0.0015442630150061 0.50193036901982 Fe
0.2377409970880142 0.5052122865999709 0.490606730492349 Fe
0.7509013802073224 0.0013521213413794 0.5009040643898179 Fe
0.7363751137418978 0.506477558641812 0.4839729522487324 Fe
0.2701107645935614 0.261006158946202 0.5100405313082069 Fe
0.2458434020550456 0.7470908326208874 0.4960160235566649 Fe
0.7674274700132756 0.2614004864635907 0.5108106694142779 Fe
0.7429488251383461 0.7453568115144816 0.4920937015950192 Fe
0.260598767666489 0.1246558449133209 0.8160457963218267 P
0.2647928469762212 0.6279089600985703 0.8258895044827812 P
0.759575369893748 0.1246623384371856 0.8148253967104937 P
0.7602152590436946 0.623207903060613 0.826303458404051 P
0.0229746638892599 0.378771601162438 0.6747030582490997 P
0.0141521053811125 0.8696144754359576 0.6733307989758958 P
0.5215552476075697 0.3810443119950932 0.6779230382469741 P
0.5143007583019865 0.8707690473340262 0.6718788969093105 P
0.4869922501330098 0.1173720266351674 0.3324786845189491 P
0.480514042053266 0.6277364480702565 0.3196806918759532 P
0.9877859314709233 0.1188567233375541 0.3321961741628894 P
0.9799714386422022 0.6308324608667759 0.3227945501267483 P
0.2425994195392548 0.3717454293142599 0.1794262100947095 P
0.2350479894487402 0.8817737505672227 0.1769365276068459 P
0.7363877536755322 0.3636104173861733 0.178898821282015 P
0.7330653067750359 0.8832838995480826 0.1765781775435319 P
0.1126196560929843 0.1262318400586444 0.8701602917077245 O
0.1130396327758026 0.624671297018278 0.8679967850319698 O
0.6110934941795795 0.1251880766417901 0.8673971312211888 O
0.6065246239476525 0.6177890130715212 0.871967836302398 O
0.0460843724326369 0.3737654310731712 0.8403314256518477 O
0.0361892484791727 0.8742342669783852 0.8392199680170128 O
0.5424811884229623 0.3807227649014162 0.8459837421595239 O
0.5393999125471012 0.875599677631079 0.837007484963212 O
0.2745887136502435 0.1249825599368412 0.6441636131079933 O
0.2923598163764 0.6255788454465109 0.6604693856387258 O
0.7743531699477236 0.1252616419558285 0.6427612730043928 O
0.7822541809602551 0.6258635323844537 0.6596752501324662 O
0.3671805412157438 0.3676467405732856 0.6401297659321322 O
0.3602695830860967 0.881215391305428 0.6297834111427063 O
0.8684640931058929 0.3664902693198227 0.6364301597607308 O
0.8608901906041484 0.880339598025821 0.6296664288353575 O
0.103608192437279 0.2892323001759918 0.6046805679107671 O
0.0722981758342555 0.7642671631884956 0.6196651361781095 O
0.6039275147519004 0.2893921752029796 0.6162578345008747 O
0.5694669822212619 0.7651008050428779 0.6161675042138044 O
0.0751273532506975 0.4858022498647608 0.6211690823485557 O
0.0946993085034627 0.9615970357542203 0.6078512989370121 O
0.5740026170830456 0.4859149769229479 0.6191583740097796 O
0.5942935613813093 0.9624003582524965 0.6055854593134176 O
0.4188995893651483 0.0150490358715248 0.3900414305756874 O
0.405296416204076 0.5342503288195656 0.3826053026137359 O
0.9199364238868809 0.0160794122220253 0.3884877795962196 O
0.9087901055182235 0.5357059921443079 0.3853845865443302 O
0.1748442828997457 0.2707529371299781 0.1214405266844353 O
0.1667451023616987 0.7805374417173501 0.1231676701848643 O
0.6698701468711348 0.2602282951550701 0.1268544446407391 O
0.6568940638643014 0.787054448200455 0.1234043253795334 O
0.1430920247069278 0.1164212265227867 0.3696150054970059 O
0.1334113788401144 0.6302834401240347 0.3711950963547879 O
0.6423614917900196 0.114482760570595 0.3695718142404791 O
0.6296177144211158 0.6284043487395815 0.3687826446537932 O
0.2387288358441166 0.3660485709444057 0.347650641516437 O
0.2081749254782245 0.8842855868977255 0.3461938674440689 O
0.7287852646413697 0.3655174552059805 0.3477072301609895 O
0.7087752182054669 0.8852733566393812 0.3464817537416771 O
0.4542837699587679 0.1229295100761676 0.1690489340777774 O
0.4603071955737771 0.6196633244356123 0.1495196054544891 O
0.9598526126136715 0.1244449177532606 0.1677636500373642 O
0.9790740092509836 0.6271972661441902 0.1556457757761957 O
0.389507799932937 0.3767287115527733 0.1119404953421528 O
0.3872079010945167 0.8826578776985494 0.1355155177603018 O
0.8819002687792324 0.3693611010955777 0.1171270809889882 O
0.8857172217461052 0.8798429322928202 0.1350041087412698 O
0.3341095476627784 0.2240822024627074 0.8706206971833031 O
0.3301168158088742 0.7304559950879932 0.8829461231953553 O
0.832104254370238 0.2240389551208614 0.8703373717015231 O
0.823261021194306 0.7264932732280768 0.8837863494651375 O
0.1692353866221471 0.4725783034855318 0.131711593022027 O
0.1664073585717706 0.9812319587039051 0.1162447150318868 O
0.6555219113174481 0.459065404846015 0.1210148053210107 O
0.670571679253984 0.9861442822799462 0.1177290274364579 O
0.4219786290162501 0.212674598556506 0.4052444677333894 O
0.4121605898723448 0.733256287874014 0.3635690597619836 O
0.9184222090340665 0.2132613795672511 0.4025655703140306 O
0.9155347054825174 0.7357113520682217 0.3733904539869289 O
0.3297941274379079 0.022795155029117 0.8692105412759542 O
0.3377404418550663 0.529001576952212 0.889594475130861 O
0.8290813256006831 0.0227190756025615 0.8673072977114893 O
0.8327638644627408 0.523462070567801 0.881201754646997 O
