System                                  
   1.0000000000000000     
     9.8973179505287323   -0.0029271268046785   -0.0007080970859342
     0.0041209076868966   12.6993594647412582   -0.0001603373987241
     0.0006672815599464    0.0001263835220560    9.3698092335868761
  Li              Fe              P               O             
    16    16    16    64
Direct
     0.2373630624922348    0.1249902838541387    0.1697528165323884
     0.2373629546208011    0.6249902782908831    0.1697530046391576
     0.7373628991446154    0.1249901861206010    0.1697527202470297
     0.7373627116394427    0.6249901907343660    0.1697529023876361
     0.4873629040858916    0.3749885038328700    0.3302476384997203
     0.4873629047855484    0.8749882935477391    0.3302475629382892
     0.9873630636946118    0.3749883880158079    0.3302475605152494
     0.9873627796556693    0.8749881942705923    0.3302471496558536
     0.0126365421612707    0.1250116004570377    0.6697523611718104
     0.0126365122776032    0.6250116133021839    0.6697521885345719
     0.5126366081865940    0.1250117944507654    0.6697522796762477
     0.5126367348249946    0.6250117131072181    0.6697520141217846
     0.2626364519717410    0.3750098033597294    0.8302468813287739
     0.2626363902492530    0.8750101606966771    0.8302468694440014
     0.7626362448763881    0.3750098403684637    0.8302467672717341
     0.7626364119683386    0.8750101429794094    0.8302468389524544
     0.9999997541747097    0.9999999575679334    0.9999993717759512
     0.9999999742333123    0.4999998977375993    0.0000001785183840
     0.4999998377064290    0.0000001740293354    0.9999996674048911
     0.4999999408627608    0.5000000616911786    0.0000003236934304
     0.9999996458750481    0.2499999678219808    0.9999995078971271
     0.9999997357008686    0.7500000438407337    0.0000001194523715
     0.4999997709203334    0.2499999903325076    0.9999996454448198
     0.4999995959662048    0.7499999387598152    0.0000000935576350
     0.2499998911139638    0.9999999853305843    0.4999998698593126
     0.2500000456402798    0.4999999608085764    0.4999995807192868
     0.7499997265940329    0.0000000685127960    0.4999998068652886
     0.7499995454108414    0.5000000785912412    0.4999998380883701
     0.2499998232344618    0.2500001181726407    0.4999998547097089
     0.2499998693737305    0.7500001056610790    0.4999995072870018
     0.7499994595001992    0.2500000548438285    0.4999999800911631
     0.7499995128252418    0.7499999924084697    0.4999996872736431
     0.2635221449655940    0.1250091950287094    0.8217771752403684
     0.2635223725026864    0.6250086287002121    0.8217764928993914
     0.7635224157270207    0.1250093017011301    0.8217770172362466
     0.7635225776307375    0.6250086901021613    0.8217764883151871
     0.0135210453156816    0.3750087278441148    0.6782212828582271
     0.0135211914144812    0.8750088566587065    0.6782211307491433
     0.5135207136385933    0.3750085700998962    0.6782219473901344
     0.5135208324287444    0.8750085568428311    0.6782218006239790
     0.4864781178003196    0.1249909883494704    0.3217785275586835
     0.4864780357961863    0.6249916957153037    0.3217775760643765
     0.9864780422276435    0.1249904662121354    0.3217755899604344
     0.9864779076783962    0.6249911875435709    0.3217748591858154
     0.2364770482957609    0.3749912997621219    0.1782226056902131
     0.2364772080785473    0.8749916688609692    0.1782233835464904
     0.7364774114778551    0.3749914676487754    0.1782234597552731
     0.7364775455310558    0.8749912674281795    0.1782231329940426
     0.1098351433679554    0.1250127075477353    0.8600800984299733
     0.1098350766720628    0.6250126070327264    0.8600795423285137
     0.6098350521189211    0.1250123665533941    0.8600800517613879
     0.6098350837414662    0.6250122996642528    0.8600795267464262
     0.0409483285819164    0.3750022423441675    0.8441954496713084
     0.0409485694219512    0.8750044964580512    0.8441952289288439
     0.5409486758878307    0.3750036347035831    0.8441952500072301
     0.5409487717914826    0.8750051031136385    0.8441950938586489
     0.2909489280504157    0.1250026046068144    0.6558038348840209
     0.2909492604772952    0.6250026250638406    0.6558041288785130
     0.7909487941467523    0.1250047322186809    0.6558033215973884
     0.7909497331577895    0.6250044195616611    0.6558040314948237
     0.3598369415740983    0.3750128886457130    0.6399207305276797
     0.3598368817937763    0.8750127155934905    0.6399206650745736
     0.8598368920099426    0.3750121530852742    0.6399205307102437
     0.8598368243819290    0.8750122540511210    0.6399205742303141
     0.0797375177596142    0.2740489820904021    0.6182535715216452
     0.0797375322417418    0.7740490607305283    0.6182537665768595
     0.5797362251990426    0.2740479464918166    0.6182544308941581
     0.5797368798393686    0.7740486477369459    0.6182540663081397
     0.0797419727090189    0.4759675778755705    0.6182695415772782
     0.0797419568133942    0.9759676040017283    0.6182690878558749
     0.5797432077175168    0.4759664010145711    0.6182682153740251
     0.5797430138948094    0.9759667643492179    0.6182680790205843
     0.4202572937386062    0.0240326716559965    0.3817306235855649
     0.4202573357837507    0.5240326962699804    0.3817309350173565
     0.9202563396347824    0.0240335827960853    0.3817307202219198
     0.9202560873830811    0.5240339201026593    0.3817317383048515
     0.1702579764309250    0.2740320427752430    0.1182689528761565
     0.1702571375366713    0.7740333122323526    0.1182676425083059
     0.6702570284445726    0.2740327703841213    0.1182679050554334
     0.6702559657052020    0.7740337079218349    0.1182671418098997
     0.1401628335598033    0.1249874505956402    0.3600796171278365
     0.1401625983348701    0.6249874439112700    0.3600795604057508
     0.6401629234547791    0.1249881561975187    0.3600796929696954
     0.6401626367960495    0.6249879820346177    0.3600795312243668
     0.2090503531777800    0.3749976853879541    0.3441958789433367
     0.2090502186533235    0.8749974538317932    0.3441957001241203
     0.7090505032871597    0.3749950906012522    0.3441958821855692
     0.7090505474355128    0.8749955939454169    0.3441953767380919
     0.4590514395781564    0.1249958922788239    0.1558036133239432
     0.4590501988097452    0.6249958090658313    0.1558040235907904
     0.9590526137779747    0.1249944728198548    0.1557998386548149
     0.9590511877871358    0.6249944342920967    0.1558004850793286
     0.3901646875293402    0.3749875357208020    0.1399200608035883
     0.3901646328623760    0.8749878396562630    0.1399199827550870
     0.8901646541869206    0.3749873024682771    0.1399202053730495
     0.8901646762111181    0.8749879172150410    0.1399205292532245
     0.3297426366808376    0.2259674424731810    0.8817318548232135
     0.3297434972320357    0.7259664508475071    0.8817327103376006
     0.8297416979812310    0.2259681230938942    0.8817309990620915
     0.8297428854790396    0.7259668193601694    0.8817324383228936
     0.1702616454957640    0.4759536500016668    0.1182534197562038
     0.1702622554532773    0.9759548438902971    0.1182543837615930
     0.6702616320880346    0.4759538906494410    0.1182534726339344
     0.6702620946317354    0.9759547022251190    0.1182539927167141
     0.4202614281099144    0.2259508553457157    0.3817462605976650
     0.4202614826066162    0.7259506862211370    0.3817466465436771
     0.9202627849110276    0.2259517246141213    0.3817446623882551
     0.9202622380447602    0.7259510960538670    0.3817456749453437
     0.3297376158613088    0.0240450557418556    0.8817458241667350
     0.3297386064280845    0.5240459561277578    0.8817467275732742
     0.8297373959585981    0.0240450511292715    0.8817451648144700
     0.8297386547643650    0.5240460957418288    0.8817465671004610

  0.00000000E+00  0.00000000E+00  0.00000000E+00
  0.00000000E+00  0.00000000E+00  0.00000000E+00
  0.00000000E+00  0.00000000E+00  0.00000000E+00
  0.00000000E+00  0.00000000E+00  0.00000000E+00
  0.00000000E+00  0.00000000E+00  0.00000000E+00
  0.00000000E+00  0.00000000E+00  0.00000000E+00
  0.00000000E+00  0.00000000E+00  0.00000000E+00
  0.00000000E+00  0.00000000E+00  0.00000000E+00
  0.00000000E+00  0.00000000E+00  0.00000000E+00
  0.00000000E+00  0.00000000E+00  0.00000000E+00
  0.00000000E+00  0.00000000E+00  0.00000000E+00
  0.00000000E+00  0.00000000E+00  0.00000000E+00
  0.00000000E+00  0.00000000E+00  0.00000000E+00
  0.00000000E+00  0.00000000E+00  0.00000000E+00
  0.00000000E+00  0.00000000E+00  0.00000000E+00
  0.00000000E+00  0.00000000E+00  0.00000000E+00
  0.00000000E+00  0.00000000E+00  0.00000000E+00
  0.00000000E+00  0.00000000E+00  0.00000000E+00
  0.00000000E+00  0.00000000E+00  0.00000000E+00
  0.00000000E+00  0.00000000E+00  0.00000000E+00
  0.00000000E+00  0.00000000E+00  0.00000000E+00
  0.00000000E+00  0.00000000E+00  0.00000000E+00
  0.00000000E+00  0.00000000E+00  0.00000000E+00
  0.00000000E+00  0.00000000E+00  0.00000000E+00
  0.00000000E+00  0.00000000E+00  0.00000000E+00
  0.00000000E+00  0.00000000E+00  0.00000000E+00
  0.00000000E+00  0.00000000E+00  0.00000000E+00
  0.00000000E+00  0.00000000E+00  0.00000000E+00
  0.00000000E+00  0.00000000E+00  0.00000000E+00
  0.00000000E+00  0.00000000E+00  0.00000000E+00
  0.00000000E+00  0.00000000E+00  0.00000000E+00
  0.00000000E+00  0.00000000E+00  0.00000000E+00
  0.00000000E+00  0.00000000E+00  0.00000000E+00
  0.00000000E+00  0.00000000E+00  0.00000000E+00
  0.00000000E+00  0.00000000E+00  0.00000000E+00
  0.00000000E+00  0.00000000E+00  0.00000000E+00
  0.00000000E+00  0.00000000E+00  0.00000000E+00
  0.00000000E+00  0.00000000E+00  0.00000000E+00
  0.00000000E+00  0.00000000E+00  0.00000000E+00
  0.00000000E+00  0.00000000E+00  0.00000000E+00
  0.00000000E+00  0.00000000E+00  0.00000000E+00
  0.00000000E+00  0.00000000E+00  0.00000000E+00
  0.00000000E+00  0.00000000E+00  0.00000000E+00
  0.00000000E+00  0.00000000E+00  0.00000000E+00
  0.00000000E+00  0.00000000E+00  0.00000000E+00
  0.00000000E+00  0.00000000E+00  0.00000000E+00
  0.00000000E+00  0.00000000E+00  0.00000000E+00
  0.00000000E+00  0.00000000E+00  0.00000000E+00
  0.00000000E+00  0.00000000E+00  0.00000000E+00
  0.00000000E+00  0.00000000E+00  0.00000000E+00
  0.00000000E+00  0.00000000E+00  0.00000000E+00
  0.00000000E+00  0.00000000E+00  0.00000000E+00
  0.00000000E+00  0.00000000E+00  0.00000000E+00
  0.00000000E+00  0.00000000E+00  0.00000000E+00
  0.00000000E+00  0.00000000E+00  0.00000000E+00
  0.00000000E+00  0.00000000E+00  0.00000000E+00
  0.00000000E+00  0.00000000E+00  0.00000000E+00
  0.00000000E+00  0.00000000E+00  0.00000000E+00
  0.00000000E+00  0.00000000E+00  0.00000000E+00
  0.00000000E+00  0.00000000E+00  0.00000000E+00
  0.00000000E+00  0.00000000E+00  0.00000000E+00
  0.00000000E+00  0.00000000E+00  0.00000000E+00
  0.00000000E+00  0.00000000E+00  0.00000000E+00
  0.00000000E+00  0.00000000E+00  0.00000000E+00
  0.00000000E+00  0.00000000E+00  0.00000000E+00
  0.00000000E+00  0.00000000E+00  0.00000000E+00
  0.00000000E+00  0.00000000E+00  0.00000000E+00
  0.00000000E+00  0.00000000E+00  0.00000000E+00
  0.00000000E+00  0.00000000E+00  0.00000000E+00
  0.00000000E+00  0.00000000E+00  0.00000000E+00
  0.00000000E+00  0.00000000E+00  0.00000000E+00
  0.00000000E+00  0.00000000E+00  0.00000000E+00
  0.00000000E+00  0.00000000E+00  0.00000000E+00
  0.00000000E+00  0.00000000E+00  0.00000000E+00
  0.00000000E+00  0.00000000E+00  0.00000000E+00
  0.00000000E+00  0.00000000E+00  0.00000000E+00
  0.00000000E+00  0.00000000E+00  0.00000000E+00
  0.00000000E+00  0.00000000E+00  0.00000000E+00
  0.00000000E+00  0.00000000E+00  0.00000000E+00
  0.00000000E+00  0.00000000E+00  0.00000000E+00
  0.00000000E+00  0.00000000E+00  0.00000000E+00
  0.00000000E+00  0.00000000E+00  0.00000000E+00
  0.00000000E+00  0.00000000E+00  0.00000000E+00
  0.00000000E+00  0.00000000E+00  0.00000000E+00
  0.00000000E+00  0.00000000E+00  0.00000000E+00
  0.00000000E+00  0.00000000E+00  0.00000000E+00
  0.00000000E+00  0.00000000E+00  0.00000000E+00
  0.00000000E+00  0.00000000E+00  0.00000000E+00
  0.00000000E+00  0.00000000E+00  0.00000000E+00
  0.00000000E+00  0.00000000E+00  0.00000000E+00
  0.00000000E+00  0.00000000E+00  0.00000000E+00
  0.00000000E+00  0.00000000E+00  0.00000000E+00
  0.00000000E+00  0.00000000E+00  0.00000000E+00
  0.00000000E+00  0.00000000E+00  0.00000000E+00
  0.00000000E+00  0.00000000E+00  0.00000000E+00
  0.00000000E+00  0.00000000E+00  0.00000000E+00
  0.00000000E+00  0.00000000E+00  0.00000000E+00
  0.00000000E+00  0.00000000E+00  0.00000000E+00
  0.00000000E+00  0.00000000E+00  0.00000000E+00
  0.00000000E+00  0.00000000E+00  0.00000000E+00
  0.00000000E+00  0.00000000E+00  0.00000000E+00
  0.00000000E+00  0.00000000E+00  0.00000000E+00
  0.00000000E+00  0.00000000E+00  0.00000000E+00
  0.00000000E+00  0.00000000E+00  0.00000000E+00
  0.00000000E+00  0.00000000E+00  0.00000000E+00
  0.00000000E+00  0.00000000E+00  0.00000000E+00
  0.00000000E+00  0.00000000E+00  0.00000000E+00
  0.00000000E+00  0.00000000E+00  0.00000000E+00
  0.00000000E+00  0.00000000E+00  0.00000000E+00
  0.00000000E+00  0.00000000E+00  0.00000000E+00
  0.00000000E+00  0.00000000E+00  0.00000000E+00
  0.00000000E+00  0.00000000E+00  0.00000000E+00
