System                                  
   1.0000000000000000     
     5.2839028755510524   -0.0378318749686625    7.7124878166891833
     2.3484711600695718    4.7886063418702003    7.7284394487692811
    -0.1039415578998947   -0.0384684738946202    9.3268418684897156
  Co              O             
     8    16
Direct
     1.0001694889592616    0.9979881102660556    0.9996986674327704
     0.0000195027283111    0.0019088736989130    0.5004909127677263
     0.0000918219039981    0.5019849240981312   -0.0003801977093638
     1.0001426698912090    0.4979503580966946    0.4997616745258490
     0.4998852279998095    0.0023294216590188   -0.0000781950276653
     0.5001447714881309    0.9979141348758065    0.4997152633869087
     0.5001285035527951    0.4978709398585081    0.9997081171919817
     0.4998557593864246    0.5025408453767845    0.4999214983506542
     0.1275937220889134    0.1353703262562397    0.1320824750982149
     0.1290002265239114    0.1316865528512460    0.6294603331337804
     0.1352351493788654    0.6291147522089791    0.1269171250460661
     0.1350184519058465    0.6360353873189217    0.6255879597260284
     0.6310332912777509    0.1307209546514100    0.1291381598686670
     0.6286479386568321    0.1337252362874043    0.6323304371088084
     0.6309617617256451    0.6351484425333875    0.1294824998248339
     0.6309555677874519    0.6313529142106128    0.6284720343271955
     0.3694802108325987    0.3643764849060048    0.3709064218687894
     0.3685233123751860    0.3696846588731710    0.8705013906874731
     0.3712223304353452    0.8708485403001699    0.3677787231760098
     0.3694091565678252    0.8651775844010292    0.8701410322319625
     0.8648242969057739    0.3677383867381493    0.3742359669021617
     0.8650898840908436    0.3668049326415446    0.8725496460101002
     0.8712076754950819    0.8642724299748190    0.3700097786535704
     0.8726487475316742    0.8685243875457285    0.8679009126640467

  0.00000000E+00  0.00000000E+00  0.00000000E+00
  0.00000000E+00  0.00000000E+00  0.00000000E+00
  0.00000000E+00  0.00000000E+00  0.00000000E+00
  0.00000000E+00  0.00000000E+00  0.00000000E+00
  0.00000000E+00  0.00000000E+00  0.00000000E+00
  0.00000000E+00  0.00000000E+00  0.00000000E+00
  0.00000000E+00  0.00000000E+00  0.00000000E+00
  0.00000000E+00  0.00000000E+00  0.00000000E+00
  0.00000000E+00  0.00000000E+00  0.00000000E+00
  0.00000000E+00  0.00000000E+00  0.00000000E+00
  0.00000000E+00  0.00000000E+00  0.00000000E+00
  0.00000000E+00  0.00000000E+00  0.00000000E+00
  0.00000000E+00  0.00000000E+00  0.00000000E+00
  0.00000000E+00  0.00000000E+00  0.00000000E+00
  0.00000000E+00  0.00000000E+00  0.00000000E+00
  0.00000000E+00  0.00000000E+00  0.00000000E+00
  0.00000000E+00  0.00000000E+00  0.00000000E+00
  0.00000000E+00  0.00000000E+00  0.00000000E+00
  0.00000000E+00  0.00000000E+00  0.00000000E+00
  0.00000000E+00  0.00000000E+00  0.00000000E+00
  0.00000000E+00  0.00000000E+00  0.00000000E+00
  0.00000000E+00  0.00000000E+00  0.00000000E+00
  0.00000000E+00  0.00000000E+00  0.00000000E+00
  0.00000000E+00  0.00000000E+00  0.00000000E+00
