System                                  
   1.0000000000000000     
     4.0996021138740462   -2.3669256200369690   -0.0000029258110028
     4.0996075622933601    2.3669350619370482   -0.0000011548986818
    -0.0000037378943425    0.0000027569495950    7.3346612385416181
  Li              Y               Pb            
     2     2     2
Direct
     0.3333094839996511    0.3333089133042952    0.2499976371169960
     0.6666907007859837    0.6666911407243484    0.7500025842777920
     0.0000000114992337    0.0000000280886805   -0.0000002769907251
    -0.0000001067814379   -0.0000000280903952    0.4999999673769949
     0.6666519503671265    0.6666516449762478    0.2499981822397705
     0.3333479601294428    0.3333483009968233    0.7500019059791716

  0.00000000E+00  0.00000000E+00  0.00000000E+00
  0.00000000E+00  0.00000000E+00  0.00000000E+00
  0.00000000E+00  0.00000000E+00  0.00000000E+00
  0.00000000E+00  0.00000000E+00  0.00000000E+00
  0.00000000E+00  0.00000000E+00  0.00000000E+00
  0.00000000E+00  0.00000000E+00  0.00000000E+00
