System                                  
   1.0000000000000000     
     5.4583236828408346    0.0365344656617722    8.3972870296155619
     2.5143951781521974    4.8436428884875653    8.3968489055764159
     0.0651415987829717    0.0389284804200273   10.0341115901326017
  Li              Co              O             
     6     8    16
Direct
     0.2473578713094922    0.2503958855708501    0.2508383759347882
     0.2496095776121358    0.2523237980336649    0.7491139185518098
     0.2486151768996775    0.7489987019635972    0.2528930064859143
     0.2503403418243583    0.7496321019117758    0.7494900056574736
     0.7496738738249424    0.2493306752163681    0.2508544316166650
     0.7503231848063185    0.2511449885178569    0.7473938819835696
     0.9980664692928746    0.9980674682334529    0.9994511645935829
     0.9980336833500599    0.9981457117565913    0.4994072387817291
     0.9990404802736017    0.5009738625205230    1.0000923189635917
     0.9988749794645604    0.5005864437390622    0.4999520910175898
     0.5012605428032443    0.9986746506121933    1.0001779059893070
     0.5005681775304651    0.9988719557131708    0.5000283172075844
     0.5013862848957366    0.5014457536349571    1.0004330076689611
     0.5020639456313302    0.5016080446640804    0.5006846925600097
     0.1325586564425776    0.1303010467633058    0.1265225637973848
     0.1299471700306633    0.1296804650153226    0.6295172705374884
     0.1402621651596909    0.6266215492553152    0.1283369663035437
     0.1402478113719690    0.6242722035417366    0.6304056326446082
     0.6266068149254646    0.1400852361152534    0.1285928867060341
     0.6241394037274410    0.1380738879028212    0.6334577041619981
     0.6283493329833830    0.6300163524722928    0.1381111936761961
     0.6273827785917797    0.6275886917249757    0.6411586553128736
     0.3698190777109185    0.3695087785492409    0.3704522258084942
     0.3698568498282019    0.3675147607282460    0.8734805580087459
     0.3634990205108046    0.8742822859574662    0.3664440724269429
     0.3590257962361688    0.8732008274828442    0.8714270072292361
     0.8742652719233579    0.3617047538661000    0.3694311278766248
     0.8729363249263919    0.3590047234547370    0.8716089432475976
     0.8719325949358459    0.8720559092866792    0.3587149504509855
     0.8695266834843945    0.8714267367170384    0.8625200134989540

  0.00000000E+00  0.00000000E+00  0.00000000E+00
  0.00000000E+00  0.00000000E+00  0.00000000E+00
  0.00000000E+00  0.00000000E+00  0.00000000E+00
  0.00000000E+00  0.00000000E+00  0.00000000E+00
  0.00000000E+00  0.00000000E+00  0.00000000E+00
  0.00000000E+00  0.00000000E+00  0.00000000E+00
  0.00000000E+00  0.00000000E+00  0.00000000E+00
  0.00000000E+00  0.00000000E+00  0.00000000E+00
  0.00000000E+00  0.00000000E+00  0.00000000E+00
  0.00000000E+00  0.00000000E+00  0.00000000E+00
  0.00000000E+00  0.00000000E+00  0.00000000E+00
  0.00000000E+00  0.00000000E+00  0.00000000E+00
  0.00000000E+00  0.00000000E+00  0.00000000E+00
  0.00000000E+00  0.00000000E+00  0.00000000E+00
  0.00000000E+00  0.00000000E+00  0.00000000E+00
  0.00000000E+00  0.00000000E+00  0.00000000E+00
  0.00000000E+00  0.00000000E+00  0.00000000E+00
  0.00000000E+00  0.00000000E+00  0.00000000E+00
  0.00000000E+00  0.00000000E+00  0.00000000E+00
  0.00000000E+00  0.00000000E+00  0.00000000E+00
  0.00000000E+00  0.00000000E+00  0.00000000E+00
  0.00000000E+00  0.00000000E+00  0.00000000E+00
  0.00000000E+00  0.00000000E+00  0.00000000E+00
  0.00000000E+00  0.00000000E+00  0.00000000E+00
  0.00000000E+00  0.00000000E+00  0.00000000E+00
  0.00000000E+00  0.00000000E+00  0.00000000E+00
  0.00000000E+00  0.00000000E+00  0.00000000E+00
  0.00000000E+00  0.00000000E+00  0.00000000E+00
  0.00000000E+00  0.00000000E+00  0.00000000E+00
  0.00000000E+00  0.00000000E+00  0.00000000E+00
