System
1.0
5.480594169439599 0.0408447788362505 8.382033736716844
2.527615973370604 4.863095394003333 8.382040315756202
0.0668288122142312 0.0409157369039793 10.014614521063388
Li Co O 
6 8 16 
direct
0.2530946346070396 0.2530928952160839 0.2530995616549573 Li
0.2450824754228199 0.2450795692457528 0.7512884591654229 Li
0.2450799758014545 0.7512911111715173 0.2450792859193709 Li
0.2490054096905626 0.7544389306082024 0.7544404852782565 Li
0.7512923446466707 0.2450790508061201 0.2450790034621921 Li
0.7544398957685299 0.2490052546746067 0.7544392537349633 Li
-0.0012857776527422 -0.0012863468806435 -0.0012866250908977 Co
0.9996620885611234 0.9996605682244482 0.500353302478592 Co
0.9996636449462782 0.5003521002230126 0.9996608238758535 Co
-0.0009822006068384 0.5006388894058874 0.5006401121795508 Co
0.5003535092120799 0.9996621725233177 0.9996609261890933 Co
0.5006395566552286 -0.0009829198928741 0.5006401153257719 Co
0.5006398617614007 0.5006392667004016 -0.0009823102993437 Co
0.5008843999293823 0.5008832503172708 0.5008856059957969 Co
0.1305960775442015 0.1305948700338673 0.1305990701254826 O
0.1306910995448725 0.1306907199450819 0.6259577788893644 O
0.130690798460303 0.6259513481899099 0.130697202779524 O
0.1427281537093911 0.6272701378774834 0.6272768610210484 O
0.6259518438800575 0.1306904254809427 0.1306970670632875 O
0.6272713785711921 0.1427268728558985 0.6272768442104162 O
0.6272714702453015 0.6272702331204255 0.142735651114759 O
0.6298190030705884 0.6298185720062673 0.629824850494257 O
0.3698562589763416 0.3698553227258106 0.3698498357873827 O
0.3701736868030518 0.3701720562131834 0.8684396843180974 O
0.3701716751169092 0.8684485595692708 0.3701669096369132 O
0.3617139413179299 0.8715731183578459 0.8715684333716749 O
0.8684500343732056 0.3701702381184948 0.3701668953593353 O
0.871573877905123 0.3617132181898349 0.8715684120843711 O
0.8715742836590462 0.871573504701702 0.3617075375951855 O
0.869466940387345 0.8694652611924043 0.8694610949795788 O
