System                                  
   1.0000000000000000     
    10.3626541995670749    0.6680397148495248    5.8900744478487770
     3.5100475804119782   10.0732086450450389    5.5779958001142633
    -0.2770176937874708    0.4281704396772118   11.5097365705302366
  Li              Mn              O             
    13    32    64
Direct
     0.0675407086612451    0.0655729270560014    0.0586520687035186
     0.0670662152518786    0.5688650862175831    0.0606449974857163
     0.0722100396181280    0.5692403810869709    0.5523051239205290
     0.5624905651612231    0.0699601557806973    0.0608572940713793
     0.5689998956060978    0.0735502937399195    0.5506018444124595
     0.5699700273621078    0.5694881007666255    0.0548561941713349
     0.5646510338664503    0.5669573348068305    0.5565009598711206
     0.4289855461132229    0.4297162716609155    0.9469991253353841
     0.4237662485689506    0.9330170547553812    0.4482268861835794
     0.4314673574702055    0.9326029534028606    0.9425717470626367
     0.9339407082096745    0.4266958787778416    0.4468984398291158
     0.9338956502606187    0.4321078548064911    0.9381993060955268
     0.9353509113792976    0.9332525536015509    0.9423902023926648
     0.2453726872075588    0.2471959051939994    0.0045073486104414
     0.2499163149725238    0.2496199379377216    0.5023040528993499
     0.2515289610304276    0.7483213907302216    0.0015191823525193
     0.2486937619702827    0.7492889470679003    0.4996503274878797
     0.7489101121597593    0.2504541637356483    0.9996410998817038
     0.7522647215319912    0.2493155843716741    0.4966022677646820
     0.7564133849371195    0.7544202955439269    0.9956630119298475
     0.7501641855954995    0.7505436316767141    0.4969991019692489
     0.2427513319545340    0.9986504429254265    0.2594775520056499
     0.2481193461582974    0.9994073492169263    0.7505888803115843
     0.2522393111646187    0.4987724757280564    0.2520965221999630
     0.2488272583209542    0.4966615403282598    0.7528893527703000
     0.7515498671114863    0.0006279100427575    0.2498970356115191
     0.7528778841074776    0.0025616744485645    0.7446205177364609
     0.7513442398416817    0.5024035593417500    0.2450467114461376
     0.7495947784910409    0.5001952604617250    0.7486361199467998
     0.9993371623001930    0.2513283764288955    0.2518873585487735
     0.0002025811456994    0.2470267840875770    0.7498014571434055
     0.0013089604931564    0.7510551085418699    0.2507684310705850
     0.0034166970680516    0.7512768952022246    0.7462766479917815
     0.4988915029601959    0.2516187999736617    0.2515049985175483
     0.4964736598889701    0.2490349065240986    0.7507512901707492
     0.4994559672249627    0.7514710123687540    0.2481502672075920
     0.5000434900397409    0.7499267743907939    0.7498588094711152
     0.2451506892697558    0.2481209765206890    0.2575535572568983
     0.2481743978788002    0.2489564190229785    0.7519102091207446
     0.2541207551560598    0.7494030352084142    0.2488782983753670
     0.2481845721035074    0.7460650306276544    0.7550644574366612
     0.7551735516522003    0.2524228791920419    0.2436560945415715
     0.7468817687301714    0.2467973450910608    0.7534017771714706
     0.7494664557263603    0.7509785271903932    0.2504282438579722
     0.7554477339741086    0.7566492909753906    0.7389877007244360
     0.1303787919115422    0.1435786535758337    0.3530125786591305
     0.1368815544287043    0.1361319766800183    0.8528433260665498
     0.1416870767153212    0.6381925050116914    0.3502282538529616
     0.1333084281411871    0.6355280946579397    0.8541253570418124
     0.6445781205909866    0.1394397756078702    0.3477195950964651
     0.6360034932494116    0.1316599457610067    0.8516299088674697
     0.6381899424889217    0.6382178467188820    0.3471712230891339
     0.6433240903708146    0.6433569605987034    0.8464678896533901
     0.1220641778062025    0.3557128792148461    0.1354664296576563
     0.1394442999516094    0.3615699064689159    0.6249172491184460
     0.1429731518131497    0.8606941606772543    0.1212166181626112
     0.1242390665586749    0.8483671910142900    0.6384318057034036
     0.6426060330019613    0.3628801236764319    0.1204191134119674
     0.6387702572958229    0.3562371644213446    0.6237421513289303
     0.6392930913971286    0.8609312350354861    0.1211026697848172
     0.6419922788910312    0.8634095863042253    0.6193071594266824
     0.3548399457568442    0.1394552333593073    0.1311015330013778
     0.3614110056361715    0.1383840662756510    0.6288755923067589
     0.3648302996890439    0.6385410178025556    0.1238959662790196
     0.3578383351990941    0.6378141394967155    0.6304904508615202
     0.8630333139763627    0.1415502319432565    0.1207475582044659
     0.8502903375142876    0.1244547396920211    0.6406122963350115
     0.8631624882020124    0.6443139482238061    0.1220798414479711
     0.8620628789508069    0.6417468143251976    0.6234738926323922
     0.1306633170425182    0.1373940165729960    0.1314031815138614
     0.1385386174939731    0.1395094809503594    0.6255630524406827
     0.1381652148202350    0.6379997124228318    0.1256523187021666
     0.1321825118456294    0.6375834624023519    0.6277577391914959
     0.6358754054952167    0.1402707848391540    0.1245637451416117
     0.6435073416451825    0.1335829178588428    0.6194077561846393
     0.6494143196598540    0.6402400069616871    0.1099592673800118
     0.6362920612506531    0.6379132383140099    0.6245106534454732
     0.3579586510562413    0.3611431524190480    0.1516739480305736
     0.3582334858952338    0.3588744572595642    0.6567834365767997
     0.3656966492535509    0.8626054160235119    0.1475463592050003
     0.3588637434975456    0.8586228556467581    0.6518658421320128
     0.8676990141576694    0.3653172616528471    0.1437243772075833
     0.8583443106197602    0.3578271294213417    0.6505883541191676
     0.8605586073752407    0.8628064784752755    0.1496962635474980
     0.8660590710379038    0.8683214887565964    0.6463966101413153
     0.3576219872766275    0.1373837528600793    0.3791665826926556
     0.3580392677760340    0.1378416345492475    0.8819868007571235
     0.3649888163836714    0.6463277851826292    0.3732981684316448
     0.3596028826422150    0.6360517264293567    0.8788164860748260
     0.8787298171370009    0.1506329522154392    0.3610152044634017
     0.8561637351598319    0.1378105796039440    0.8796157415080811
     0.8581563416240522    0.6371992357001039    0.3771491038362784
     0.8769746588079713    0.6496610536688875    0.8620120801841288
     0.1371895479149647    0.3604036475405405    0.3771964683968391
     0.1357698681245984    0.3570079199972347    0.8782776201966120
     0.1448942873422037    0.8570270491015912    0.3711671893778661
     0.1389874763038367    0.8569855886427653    0.8772298969544433
     0.6499965796812710    0.3572490930841023    0.3688901008200106
     0.6365531829775608    0.3595556769213620    0.8735612718091229
     0.6364061500529286    0.8597492576965473    0.3738281173294691
     0.6497485917833425    0.8769501026875998    0.8585614600867569
     0.3625156425372702    0.3574365605793682    0.3771734991006215
     0.3555094349571318    0.3599975586779643    0.8844223926763473
     0.3531766506782478    0.8663810170634799    0.3841181069994509
     0.3642496502803604    0.8601821813922532    0.8756434131721976
     0.8657020032112445    0.3632892620523086    0.3734671398022561
     0.8613017192816416    0.3624569774085856    0.8741724701963716
     0.8604793646548524    0.8584151855748001    0.3762292992257180
     0.8689805962780512    0.8665713100889315    0.8686901962171515

  0.00000000E+00  0.00000000E+00  0.00000000E+00
  0.00000000E+00  0.00000000E+00  0.00000000E+00
  0.00000000E+00  0.00000000E+00  0.00000000E+00
  0.00000000E+00  0.00000000E+00  0.00000000E+00
  0.00000000E+00  0.00000000E+00  0.00000000E+00
  0.00000000E+00  0.00000000E+00  0.00000000E+00
  0.00000000E+00  0.00000000E+00  0.00000000E+00
  0.00000000E+00  0.00000000E+00  0.00000000E+00
  0.00000000E+00  0.00000000E+00  0.00000000E+00
  0.00000000E+00  0.00000000E+00  0.00000000E+00
  0.00000000E+00  0.00000000E+00  0.00000000E+00
  0.00000000E+00  0.00000000E+00  0.00000000E+00
  0.00000000E+00  0.00000000E+00  0.00000000E+00
  0.00000000E+00  0.00000000E+00  0.00000000E+00
  0.00000000E+00  0.00000000E+00  0.00000000E+00
  0.00000000E+00  0.00000000E+00  0.00000000E+00
  0.00000000E+00  0.00000000E+00  0.00000000E+00
  0.00000000E+00  0.00000000E+00  0.00000000E+00
  0.00000000E+00  0.00000000E+00  0.00000000E+00
  0.00000000E+00  0.00000000E+00  0.00000000E+00
  0.00000000E+00  0.00000000E+00  0.00000000E+00
  0.00000000E+00  0.00000000E+00  0.00000000E+00
  0.00000000E+00  0.00000000E+00  0.00000000E+00
  0.00000000E+00  0.00000000E+00  0.00000000E+00
  0.00000000E+00  0.00000000E+00  0.00000000E+00
  0.00000000E+00  0.00000000E+00  0.00000000E+00
  0.00000000E+00  0.00000000E+00  0.00000000E+00
  0.00000000E+00  0.00000000E+00  0.00000000E+00
  0.00000000E+00  0.00000000E+00  0.00000000E+00
  0.00000000E+00  0.00000000E+00  0.00000000E+00
  0.00000000E+00  0.00000000E+00  0.00000000E+00
  0.00000000E+00  0.00000000E+00  0.00000000E+00
  0.00000000E+00  0.00000000E+00  0.00000000E+00
  0.00000000E+00  0.00000000E+00  0.00000000E+00
  0.00000000E+00  0.00000000E+00  0.00000000E+00
  0.00000000E+00  0.00000000E+00  0.00000000E+00
  0.00000000E+00  0.00000000E+00  0.00000000E+00
  0.00000000E+00  0.00000000E+00  0.00000000E+00
  0.00000000E+00  0.00000000E+00  0.00000000E+00
  0.00000000E+00  0.00000000E+00  0.00000000E+00
  0.00000000E+00  0.00000000E+00  0.00000000E+00
  0.00000000E+00  0.00000000E+00  0.00000000E+00
  0.00000000E+00  0.00000000E+00  0.00000000E+00
  0.00000000E+00  0.00000000E+00  0.00000000E+00
  0.00000000E+00  0.00000000E+00  0.00000000E+00
  0.00000000E+00  0.00000000E+00  0.00000000E+00
  0.00000000E+00  0.00000000E+00  0.00000000E+00
  0.00000000E+00  0.00000000E+00  0.00000000E+00
  0.00000000E+00  0.00000000E+00  0.00000000E+00
  0.00000000E+00  0.00000000E+00  0.00000000E+00
  0.00000000E+00  0.00000000E+00  0.00000000E+00
  0.00000000E+00  0.00000000E+00  0.00000000E+00
  0.00000000E+00  0.00000000E+00  0.00000000E+00
  0.00000000E+00  0.00000000E+00  0.00000000E+00
  0.00000000E+00  0.00000000E+00  0.00000000E+00
  0.00000000E+00  0.00000000E+00  0.00000000E+00
  0.00000000E+00  0.00000000E+00  0.00000000E+00
  0.00000000E+00  0.00000000E+00  0.00000000E+00
  0.00000000E+00  0.00000000E+00  0.00000000E+00
  0.00000000E+00  0.00000000E+00  0.00000000E+00
  0.00000000E+00  0.00000000E+00  0.00000000E+00
  0.00000000E+00  0.00000000E+00  0.00000000E+00
  0.00000000E+00  0.00000000E+00  0.00000000E+00
  0.00000000E+00  0.00000000E+00  0.00000000E+00
  0.00000000E+00  0.00000000E+00  0.00000000E+00
  0.00000000E+00  0.00000000E+00  0.00000000E+00
  0.00000000E+00  0.00000000E+00  0.00000000E+00
  0.00000000E+00  0.00000000E+00  0.00000000E+00
  0.00000000E+00  0.00000000E+00  0.00000000E+00
  0.00000000E+00  0.00000000E+00  0.00000000E+00
  0.00000000E+00  0.00000000E+00  0.00000000E+00
  0.00000000E+00  0.00000000E+00  0.00000000E+00
  0.00000000E+00  0.00000000E+00  0.00000000E+00
  0.00000000E+00  0.00000000E+00  0.00000000E+00
  0.00000000E+00  0.00000000E+00  0.00000000E+00
  0.00000000E+00  0.00000000E+00  0.00000000E+00
  0.00000000E+00  0.00000000E+00  0.00000000E+00
  0.00000000E+00  0.00000000E+00  0.00000000E+00
  0.00000000E+00  0.00000000E+00  0.00000000E+00
  0.00000000E+00  0.00000000E+00  0.00000000E+00
  0.00000000E+00  0.00000000E+00  0.00000000E+00
  0.00000000E+00  0.00000000E+00  0.00000000E+00
  0.00000000E+00  0.00000000E+00  0.00000000E+00
  0.00000000E+00  0.00000000E+00  0.00000000E+00
  0.00000000E+00  0.00000000E+00  0.00000000E+00
  0.00000000E+00  0.00000000E+00  0.00000000E+00
  0.00000000E+00  0.00000000E+00  0.00000000E+00
  0.00000000E+00  0.00000000E+00  0.00000000E+00
  0.00000000E+00  0.00000000E+00  0.00000000E+00
  0.00000000E+00  0.00000000E+00  0.00000000E+00
  0.00000000E+00  0.00000000E+00  0.00000000E+00
  0.00000000E+00  0.00000000E+00  0.00000000E+00
  0.00000000E+00  0.00000000E+00  0.00000000E+00
  0.00000000E+00  0.00000000E+00  0.00000000E+00
  0.00000000E+00  0.00000000E+00  0.00000000E+00
  0.00000000E+00  0.00000000E+00  0.00000000E+00
  0.00000000E+00  0.00000000E+00  0.00000000E+00
  0.00000000E+00  0.00000000E+00  0.00000000E+00
  0.00000000E+00  0.00000000E+00  0.00000000E+00
  0.00000000E+00  0.00000000E+00  0.00000000E+00
  0.00000000E+00  0.00000000E+00  0.00000000E+00
  0.00000000E+00  0.00000000E+00  0.00000000E+00
  0.00000000E+00  0.00000000E+00  0.00000000E+00
  0.00000000E+00  0.00000000E+00  0.00000000E+00
  0.00000000E+00  0.00000000E+00  0.00000000E+00
  0.00000000E+00  0.00000000E+00  0.00000000E+00
  0.00000000E+00  0.00000000E+00  0.00000000E+00
  0.00000000E+00  0.00000000E+00  0.00000000E+00
  0.00000000E+00  0.00000000E+00  0.00000000E+00
