System
1.0
11.400938747708212 -0.127046185305991 -0.2333408100202317
-5.717220176732502 9.997921982161543 0.0770862630575056
0.0362140596339119 0.0921245990614989 9.263612084811271
Li Mn Co Ni O 
6 12 8 12 64 
direct
0.6740726844073663 0.3366640419847662 0.8982597884892543 Li
0.6736550193814504 0.8372956226316168 0.8982664945334488 Li
0.3322349990022186 0.1609285816492184 0.4022843319137208 Li
0.3321449286635047 0.6610803896645604 0.4026287193261969 Li
0.8322368533250071 0.168838133186968 0.4013731057835144 Li
0.8321775067093757 0.6688031879913159 0.4020295512374771 Li
0.0843702597882358 0.4132165542277522 0.2102807344495397 Mn
0.085078373658721 0.9124326924636739 0.2099044063644655 Mn
0.5835551410763743 0.4204656810825608 0.2112912803324237 Mn
0.5835691744522492 0.920486584107624 0.2112333276072612 Mn
0.0852231540223819 0.163510807325223 0.2133619437991509 Mn
0.0854895289228194 0.6647584545012994 0.2127472124474939 Mn
0.5842152270242706 0.1720599399054502 0.2087348659844017 Mn
0.5841216140288942 0.6721750081925592 0.2088863983609993 Mn
0.1667028137099718 0.0807973296653168 0.7122131773824554 Mn
0.1664341573769929 0.58250656085442 0.7123965194806534 Mn
0.6657924742118438 0.0835200488916433 0.7098693533759736 Mn
0.6658583149683972 0.5837203644674916 0.7104856283954649 Mn
0.1679168246798146 0.327562909514507 0.4862230347358774 Co
0.168601784324858 0.8279477181495146 0.4867917773332556 Co
0.6675428167175637 0.3384103514964791 0.4856159689267385 Co
0.6676560741749888 0.8386873093432725 0.4860518962710363 Co
0.3413368210184426 0.172605175195463 0.9810424461101861 Co
0.3410449748666941 0.6741777299637607 0.9815339663975503 Co
0.8410134494559177 0.1684034237989948 0.9829614422948311 Co
0.8414082086680056 0.6686433209559791 0.9828334847065888 Co
0.4176857734720419 0.0859928601735766 0.7116720894509302 Ni
0.4179293461978988 0.5863744775429283 0.7112403642815254 Ni
0.9155794789470162 0.0840878280177967 0.711935046801787 Ni
0.9154492549320942 0.5840619569737227 0.7126335827574463 Ni
0.3332090381033599 0.4153808006977354 0.2088492808642963 Ni
0.3322663046041574 0.9151601193759799 0.2078654654435401 Ni
0.832577903482339 0.4187801554548668 0.209356762638937 Ni
0.8325843768979356 0.9189395343056926 0.2096082394676968 Ni
0.4145774456819575 0.3316152388801468 0.7111495164788194 Ni
0.414047570502843 0.8314036330565945 0.7120932569237263 Ni
0.9181277569821422 0.3323324511192995 0.7099972864662125 Ni
0.9185527760870632 0.832359656412297 0.7114970263509499 Ni
0.1718159646353231 0.0838371909565431 0.1069059900168481 O
0.1719189375286902 0.5842072352358044 0.1074246247559144 O
0.6726950743128628 0.090016150414533 0.1059635770382086 O
0.6732430128461615 0.5905822690781187 0.1058832279826588 O
0.4202956252821702 0.3382232566719843 0.0942949221553156 O
0.4199773060572372 0.8367437827280493 0.0947439421966158 O
0.918581585173539 0.3235163672850906 0.0955489946880175 O
0.9180418361167241 0.8227646610105757 0.0961726600401295 O
0.3349674232845207 0.1695584925192768 0.6101761595566415 O
0.3350775590507679 0.6696922747845188 0.6105535897689847 O
0.8350290499704448 0.1676424744001427 0.6090430070753704 O
0.8353101904183247 0.6679614527115477 0.6102301777171427 O
0.2643627792760168 0.026843602229519 0.8437277742722955 O
0.2625721337994186 0.5249443670314689 0.8440038146693957 O
0.7613629867136502 0.022283953919484 0.840115349382282 O
0.7610042029583987 0.5219796113274586 0.840638554576392 O
0.2614081120744691 0.23940456302276 0.8386133808034006 O
0.2626201034621996 0.7392568472610545 0.8389517528570002 O
0.762368061949451 0.2375995361552251 0.8408094132095317 O
0.7625513708909943 0.7381845918257446 0.8410316765450732 O
0.3201257065468747 0.405260033443661 0.5988928816655618 O
0.3202700353026017 0.9050912304403341 0.5985625493257533 O
0.8186176296192129 0.413918042008466 0.5976839784424843 O
0.8196983791747786 0.9140612345946966 0.598481952201891 O
0.2325221877036511 0.2489388571106639 0.3497479966809522 O
0.2328766596029822 0.7496910287671882 0.3498827922708335 O
0.7373704379074512 0.2637455073014576 0.3436108843549808 O
0.7374132081686643 0.7636593036917627 0.3438926318031664 O
0.0197897548522285 0.2561553890237834 0.3381035768201156 O
0.019464557780626 0.7561894028392219 0.3383419331720974 O
0.5190432504988188 0.2615735770742105 0.3368381285991662 O
0.5190312983678723 0.7616479136430216 0.3369758743016925 O
0.0792905022794458 0.1603723751545839 0.5973486670370906 O
0.0789853136717097 0.6598919920298075 0.5970196500553867 O
0.583693048898804 0.1669451312873584 0.5985808101856966 O
0.5841975232369344 0.6673626880859104 0.5989906500119299 O
0.9974953570683249 0.9981702797862708 0.8092411758044125 O
0.9971039647964918 0.4979316062616346 0.8089889206954178 O
0.4972500836336503 0.9968018530857613 0.8082101274274425 O
0.4968209750238636 0.4970429096968392 0.808085332001426 O
0.9990136470269046 0.994594457996205 0.3090896024578876 O
0.9988121446134132 0.4938486359018606 0.3091071718443207 O
0.4983192150453215 0.00247493307769 0.3070095859495934 O
0.4985133629933471 0.5024365171844843 0.3080650678776679 O
0.1687284272870168 0.3312283029646099 0.107695847565052 O
0.168249858659065 0.8310462871651397 0.1089278478093763 O
0.6673117633240425 0.3393356974391686 0.106127934159297 O
0.6673086341344406 0.8391850693989117 0.1062364341995492 O
0.4836992996466833 0.2514820186752084 0.8455267877277639 O
0.4832191555200029 0.7520058343700582 0.845723027824392 O
0.9829571527675989 0.2351298391435137 0.8485279181008744 O
0.9800776332725585 0.7340190757380574 0.8506587087052965 O
0.0848961291938613 0.4173765559608431 0.6010595613247729 O
0.0837557317373298 0.9173414433053602 0.6003817584006297 O
0.5789631595433252 0.4191430016024155 0.5985258133514266 O
0.5791823955934188 0.918864164091107 0.598536363210799 O
0.2378348488101418 0.4734499501074722 0.3449075801651914 O
0.2374778954681259 0.9735178912775214 0.3453058810323568 O
0.7317794801375263 0.4824853524223232 0.3486177900632755 O
0.7318568484608001 0.9824501881834042 0.3485521762681691 O
0.4193026375865947 0.0975358576987022 0.0952309396244091 O
0.4199066902456923 0.5979015585118438 0.0950816119128378 O
0.9208448378082176 0.0847077319618197 0.0957019060803691 O
0.9205349127785842 0.5849850760600314 0.0964166435091666 O
