System                                  
   1.0000000000000000     
    10.3626541995670749    0.6680397148495248    5.8900744478487770
     3.5100475804119782   10.0732086450450389    5.5779958001142633
    -0.2770176937874708    0.4281704396772118   11.5097365705302366
  Li              Mn              O             
     9    32    64
Direct
     0.0587661722726210    0.0619420586635434    0.0676311276837017
     0.5675663321107535    0.0702104252769226    0.0575407993268596
     0.5682180840163278    0.5735242166108550    0.0558567546428016
     0.4258351084001916    0.4316082264437872    0.9456048149360208
     0.4391467472109098    0.9250621392444699    0.4475807322191716
     0.4387347342757082    0.9311240682818025    0.9387717408836707
     0.9330073661622396    0.4332654582477585    0.4404367978890338
     0.9328753296498017    0.4398203783417114    0.9361873572859752
     0.9386104549255073    0.9349761951614365    0.9385153824279915
     0.2429446989128124    0.2418734372714130    0.0054998485592956
     0.2416951517965727    0.2374459646193729    0.5079876358685378
     0.2504022449128335    0.7461329468502519    0.0057184901804094
     0.2500689003575918    0.7503185769502586    0.5029293909619453
     0.7484139281371058    0.2566171351732132    0.9966693475457558
     0.7495403110028284    0.2503825047611574    0.4960762490160941
     0.7588061379989669    0.7587098754219840    0.9939430332095641
     0.7554867995671931    0.7548091635152533    0.4969067381992481
     0.2497848908052537    0.9944593073893889    0.2551845592296962
     0.2437123355755784    0.9938367361032139    0.7572236722385179
     0.2446607079967461    0.4948038763565649    0.2606962794957164
     0.2455440150984619    0.4962235663634014    0.7509974186719568
     0.7532125115226446    0.0055306038564063    0.2486974105920703
     0.7516887476766820    0.0052290707202794    0.7420774806990929
     0.7563697117345555    0.5055099158669528    0.2438934126119338
     0.7523781088280297    0.5059427461869177    0.7423130691587199
     0.9980264041671578    0.2472612530085530    0.2520881419470005
     0.9953665872526679    0.2430081776180920    0.7522003222503925
     0.0029127484528446    0.7522912680030734    0.2512755944343113
     0.0044659666420079    0.7531197916206246    0.7454725532549128
     0.4970671241721014    0.2492995511821166    0.2560293047033280
     0.4953565286473608    0.2478669541022221    0.7465552835806690
     0.5058958993197238    0.7496282665918459    0.2499459288415286
     0.5039210098216502    0.7527915368247287    0.7484362908564248
     0.2444691944191194    0.2403513539196256    0.2595772741420445
     0.2404037874101106    0.2395278164171730    0.7612854236574854
     0.2512437489891683    0.7485442953876188    0.2545127046457145
     0.2486687545836369    0.7455057337671405    0.7539524113712583
     0.7513992901273944    0.2575749566763641    0.2427539719791459
     0.7472406875521129    0.2509040982522153    0.7459937137294808
     0.7577162875563851    0.7561832820579166    0.2416466440772125
     0.7552498584268774    0.7593057880084771    0.7390519868247541
     0.1347096166219865    0.1282755498964360    0.3532353352992443
     0.1268186167719026    0.1249204820266493    0.8615080165354333
     0.1387999439744836    0.6416052066603020    0.3508437008938944
     0.1371364479108487    0.6380476692037215    0.8489692350445913
     0.6445738907516848    0.1455688500110518    0.3425649317704013
     0.6361202532542299    0.1354097798202102    0.8489910781221448
     0.6497825705936435    0.6430147011007048    0.3401440338153265
     0.6391232998307846    0.6489621168946522    0.8494360367135283
     0.1259282684619900    0.3425430063812860    0.1386314980740266
     0.1188822161027245    0.3396869678275710    0.6425159290419685
     0.1265316080313517    0.8555444324649744    0.1345753396518302
     0.1265176053189734    0.8519341964120007    0.6375988109842229
     0.6396751032330152    0.3680318882115172    0.1162260504607546
     0.6419313984967376    0.3540931802086198    0.6224676073284715
     0.6459424475026728    0.8672279104774033    0.1174288426892485
     0.6457862201348915    0.8618695958305407    0.6183901177055110
     0.3523390237402805    0.1208031836686199    0.1395733930428404
     0.3415736703223590    0.1165277340244402    0.6486857125221996
     0.3609941167048069    0.6404720768956409    0.1289404795366018
     0.3541923041935151    0.6414685135746255    0.6312234209989599
     0.8610875007882149    0.1483542713617529    0.1175522233436561
     0.8506987165889704    0.1260913314710158    0.6370247428957204
     0.8636973270372987    0.6503841240659201    0.1172747464554351
     0.8585721379915596    0.6427456109441776    0.6284508519792855
     0.1317191669401510    0.1289653339785546    0.1325914246567320
     0.1271584351105618    0.1258128596324732    0.6378491613380375
     0.1375332032732584    0.6400129703181575    0.1296705081881248
     0.1334745665905261    0.6438805740614785    0.6245255560529531
     0.6375439953687795    0.1439528529302227    0.1207111929318764
     0.6407350276094602    0.1377245281942957    0.6191110515531353
     0.6448601513318234    0.6470050282297604    0.1134492562490218
     0.6439468734444389    0.6439019294112835    0.6192562384596974
     0.3550272627752734    0.3551090664036556    0.1575444914484540
     0.3474272335891068    0.3513725131636463    0.6602038218994978
     0.3642783060328809    0.8658716897396230    0.1493188600388616
     0.3582278201613474    0.8645248979861989    0.6537234020278162
     0.8690272403263524    0.3676847970160281    0.1427892012312879
     0.8668548798921385    0.3541878789809895    0.6454243736185448
     0.8699458428495174    0.8683745057391357    0.1448325942006367
     0.8663306745032865    0.8703736244600476    0.6456085814653941
     0.3550252092535295    0.1303980697006414    0.3832603533287278
     0.3526214667303700    0.1322347183138466    0.8838821825056976
     0.3595057179470077    0.6476763124099466    0.3759084421986463
     0.3590723034846254    0.6390963512846907    0.8812777540850364
     0.8746269742851894    0.1516131981814524    0.3588177192320207
     0.8692446155507345    0.1450562690933291    0.8692815420875044
     0.8820078917988227    0.6475619601375857    0.3611764757864996
     0.8778113567841099    0.6523906796390871    0.8624658942272038
     0.1346428450711961    0.3496052439858228    0.3802232247045533
     0.1327337409253157    0.3503098991698145    0.8825668660843293
     0.1501960189488975    0.8752008207271961    0.3618030810115949
     0.1436274551118683    0.8692122088440144    0.8707584356947480
     0.6491592322801466    0.3635800847381314    0.3655715687892609
     0.6404827192416951    0.3646972197389876    0.8667984843685523
     0.6457205700385875    0.8630919208087598    0.3683903118380457
     0.6491583593304937    0.8814339099537860    0.8578894487020745
     0.3504697661930326    0.3486444902210247    0.3902853672848999
     0.3558305469062324    0.3531588726825842    0.8825492398376680
     0.3624242530515747    0.8654826656726433    0.3776181969094723
     0.3592729453293547    0.8633590776875550    0.8795755506751332
     0.8711286801679786    0.3597049913960415    0.3716054754870312
     0.8659886101815768    0.3637031763138068    0.8680561004190153
     0.8701513848157234    0.8629281153108520    0.3700893054906736
     0.8698058025389112    0.8706490321249518    0.8662229908923899

  0.00000000E+00  0.00000000E+00  0.00000000E+00
  0.00000000E+00  0.00000000E+00  0.00000000E+00
  0.00000000E+00  0.00000000E+00  0.00000000E+00
  0.00000000E+00  0.00000000E+00  0.00000000E+00
  0.00000000E+00  0.00000000E+00  0.00000000E+00
  0.00000000E+00  0.00000000E+00  0.00000000E+00
  0.00000000E+00  0.00000000E+00  0.00000000E+00
  0.00000000E+00  0.00000000E+00  0.00000000E+00
  0.00000000E+00  0.00000000E+00  0.00000000E+00
  0.00000000E+00  0.00000000E+00  0.00000000E+00
  0.00000000E+00  0.00000000E+00  0.00000000E+00
  0.00000000E+00  0.00000000E+00  0.00000000E+00
  0.00000000E+00  0.00000000E+00  0.00000000E+00
  0.00000000E+00  0.00000000E+00  0.00000000E+00
  0.00000000E+00  0.00000000E+00  0.00000000E+00
  0.00000000E+00  0.00000000E+00  0.00000000E+00
  0.00000000E+00  0.00000000E+00  0.00000000E+00
  0.00000000E+00  0.00000000E+00  0.00000000E+00
  0.00000000E+00  0.00000000E+00  0.00000000E+00
  0.00000000E+00  0.00000000E+00  0.00000000E+00
  0.00000000E+00  0.00000000E+00  0.00000000E+00
  0.00000000E+00  0.00000000E+00  0.00000000E+00
  0.00000000E+00  0.00000000E+00  0.00000000E+00
  0.00000000E+00  0.00000000E+00  0.00000000E+00
  0.00000000E+00  0.00000000E+00  0.00000000E+00
  0.00000000E+00  0.00000000E+00  0.00000000E+00
  0.00000000E+00  0.00000000E+00  0.00000000E+00
  0.00000000E+00  0.00000000E+00  0.00000000E+00
  0.00000000E+00  0.00000000E+00  0.00000000E+00
  0.00000000E+00  0.00000000E+00  0.00000000E+00
  0.00000000E+00  0.00000000E+00  0.00000000E+00
  0.00000000E+00  0.00000000E+00  0.00000000E+00
  0.00000000E+00  0.00000000E+00  0.00000000E+00
  0.00000000E+00  0.00000000E+00  0.00000000E+00
  0.00000000E+00  0.00000000E+00  0.00000000E+00
  0.00000000E+00  0.00000000E+00  0.00000000E+00
  0.00000000E+00  0.00000000E+00  0.00000000E+00
  0.00000000E+00  0.00000000E+00  0.00000000E+00
  0.00000000E+00  0.00000000E+00  0.00000000E+00
  0.00000000E+00  0.00000000E+00  0.00000000E+00
  0.00000000E+00  0.00000000E+00  0.00000000E+00
  0.00000000E+00  0.00000000E+00  0.00000000E+00
  0.00000000E+00  0.00000000E+00  0.00000000E+00
  0.00000000E+00  0.00000000E+00  0.00000000E+00
  0.00000000E+00  0.00000000E+00  0.00000000E+00
  0.00000000E+00  0.00000000E+00  0.00000000E+00
  0.00000000E+00  0.00000000E+00  0.00000000E+00
  0.00000000E+00  0.00000000E+00  0.00000000E+00
  0.00000000E+00  0.00000000E+00  0.00000000E+00
  0.00000000E+00  0.00000000E+00  0.00000000E+00
  0.00000000E+00  0.00000000E+00  0.00000000E+00
  0.00000000E+00  0.00000000E+00  0.00000000E+00
  0.00000000E+00  0.00000000E+00  0.00000000E+00
  0.00000000E+00  0.00000000E+00  0.00000000E+00
  0.00000000E+00  0.00000000E+00  0.00000000E+00
  0.00000000E+00  0.00000000E+00  0.00000000E+00
  0.00000000E+00  0.00000000E+00  0.00000000E+00
  0.00000000E+00  0.00000000E+00  0.00000000E+00
  0.00000000E+00  0.00000000E+00  0.00000000E+00
  0.00000000E+00  0.00000000E+00  0.00000000E+00
  0.00000000E+00  0.00000000E+00  0.00000000E+00
  0.00000000E+00  0.00000000E+00  0.00000000E+00
  0.00000000E+00  0.00000000E+00  0.00000000E+00
  0.00000000E+00  0.00000000E+00  0.00000000E+00
  0.00000000E+00  0.00000000E+00  0.00000000E+00
  0.00000000E+00  0.00000000E+00  0.00000000E+00
  0.00000000E+00  0.00000000E+00  0.00000000E+00
  0.00000000E+00  0.00000000E+00  0.00000000E+00
  0.00000000E+00  0.00000000E+00  0.00000000E+00
  0.00000000E+00  0.00000000E+00  0.00000000E+00
  0.00000000E+00  0.00000000E+00  0.00000000E+00
  0.00000000E+00  0.00000000E+00  0.00000000E+00
  0.00000000E+00  0.00000000E+00  0.00000000E+00
  0.00000000E+00  0.00000000E+00  0.00000000E+00
  0.00000000E+00  0.00000000E+00  0.00000000E+00
  0.00000000E+00  0.00000000E+00  0.00000000E+00
  0.00000000E+00  0.00000000E+00  0.00000000E+00
  0.00000000E+00  0.00000000E+00  0.00000000E+00
  0.00000000E+00  0.00000000E+00  0.00000000E+00
  0.00000000E+00  0.00000000E+00  0.00000000E+00
  0.00000000E+00  0.00000000E+00  0.00000000E+00
  0.00000000E+00  0.00000000E+00  0.00000000E+00
  0.00000000E+00  0.00000000E+00  0.00000000E+00
  0.00000000E+00  0.00000000E+00  0.00000000E+00
  0.00000000E+00  0.00000000E+00  0.00000000E+00
  0.00000000E+00  0.00000000E+00  0.00000000E+00
  0.00000000E+00  0.00000000E+00  0.00000000E+00
  0.00000000E+00  0.00000000E+00  0.00000000E+00
  0.00000000E+00  0.00000000E+00  0.00000000E+00
  0.00000000E+00  0.00000000E+00  0.00000000E+00
  0.00000000E+00  0.00000000E+00  0.00000000E+00
  0.00000000E+00  0.00000000E+00  0.00000000E+00
  0.00000000E+00  0.00000000E+00  0.00000000E+00
  0.00000000E+00  0.00000000E+00  0.00000000E+00
  0.00000000E+00  0.00000000E+00  0.00000000E+00
  0.00000000E+00  0.00000000E+00  0.00000000E+00
  0.00000000E+00  0.00000000E+00  0.00000000E+00
  0.00000000E+00  0.00000000E+00  0.00000000E+00
  0.00000000E+00  0.00000000E+00  0.00000000E+00
  0.00000000E+00  0.00000000E+00  0.00000000E+00
  0.00000000E+00  0.00000000E+00  0.00000000E+00
  0.00000000E+00  0.00000000E+00  0.00000000E+00
  0.00000000E+00  0.00000000E+00  0.00000000E+00
  0.00000000E+00  0.00000000E+00  0.00000000E+00
  0.00000000E+00  0.00000000E+00  0.00000000E+00
