System
1.0
5.485914501021153 0.1338288516861538 8.616420798782482
2.57588190738633 4.947911406744375 8.63961449369026
0.1105739846858174 0.1174199295535371 10.26823279447495
Li Co O 
1 8 16 
direct
0.2530008431104318 0.2482418772749226 0.7468390740555068 Li
0.9963650528838983 -0.0001972569045025 0.9986204163973315 Co
0.9989687446268148 0.9991457257622324 0.4995710298647883 Co
0.9990217716941432 0.4986317193663493 1.0000829312571275 Co
1.0001880489289845 0.4979244778572777 0.4967726245195294 Co
0.5007320186814906 0.0010979396144806 0.0020559164403169 Co
0.4997498895070818 0.0006415529185265 0.50135315406078 Co
0.4998054695149658 0.5024666720156379 -0.0005633497510797 Co
0.5003790330579164 0.5001080908577278 0.5010685811599099 Co
0.1357889742277605 0.1290986938053996 0.1291360709352892 O
0.1341625307692582 0.1357575367807084 0.6323803049238327 O
0.1341802086826387 0.6344084957954375 0.1337984409059522 O
0.1313569408863988 0.6314214413291407 0.6315660650327168 O
0.6323329120185908 0.137706897731453 0.135652056691454 O
0.6256525955674815 0.1338840864100057 0.6407183033270001 O
0.6257409269195622 0.640755697739196 0.1337397872243694 O
0.6251492680313132 0.6424612216474799 0.6404913439598753 O
0.3645335790490304 0.369805648965539 0.3697975982494527 O
0.3613492165174153 0.3640367517507411 0.870363077645539 O
0.3614057363699625 0.8683430719180538 0.3659283766486378 O
0.3565261497772862 0.8742543526379338 0.8742030638374054 O
0.8743601798273313 0.3589459341247819 0.3606169265146319 O
0.8769982728459764 0.3624828471983488 0.8590115438945481 O
0.8769930966456599 0.8592513988331538 0.3622553586583663 O
0.8720180034170465 0.8610533865468695 0.8626985227291577 O
