System                                  
   1.0000000000000000     
    11.3948178586510220   -0.1086248228352444   -0.2527177443599415
    -5.6980519176275912    9.9901490115988363    0.0927405262818597
     0.0218847178698065    0.0975817044465995    9.2573459401859832
  Li              Mn              Co              Ni              O             
    16    12     8    12    64
Direct
     0.1715137528814078    0.3394430083316426    0.8931774858603856
     0.1715134994593145    0.8394430719568925    0.8931736911342908
     0.6715131710439878    0.3394432409326012    0.8931767894275452
     0.6715137327803611    0.8394439135869429    0.8931780755009187
     0.4994020372773949    0.9985651959762535    0.9948640665225165
     0.4994017529390532    0.4985647874302408    0.9948651141251810
     0.9994151530586045    0.9985750074718865    0.9948672314617462
     0.9994129787756915    0.4985748511214498    0.9948648527040708
     0.4898924442536796    0.4924128224827863    0.4961357734308645
     0.4898950778781725    0.9924187788635698    0.4961359764291099
     0.9898936579382985    0.4924130045298993    0.4961330035506535
     0.9898951676398603    0.9924192391459187    0.4961347929179457
     0.3305676064974584    0.1641930587411705    0.3988231558213713
     0.3305690921533161    0.6641976166604554    0.3988270620510554
     0.8305674964722166    0.1641857036274059    0.3988276173084081
     0.8305688384808994    0.6641889867724111    0.3988305759988015
     0.0852490058957224    0.4149372605618258    0.2145439380489295
     0.0852487438658950    0.9149369681921812    0.2145427472190619
     0.5852472347952490    0.4149327638335735    0.2145405217941127
     0.5852478446613648    0.9149323104218774    0.2145403463297779
     0.0861496279794374    0.1705634106612675    0.2129123729738046
     0.0861488786745486    0.6705637656741492    0.2129111756489930
     0.5861536563342374    0.1705580383597451    0.2129168295394550
     0.5861528153922744    0.6705593737479267    0.2129191163477151
     0.1686715960405753    0.0830333431632540    0.7132038136206594
     0.1686729027495128    0.5830331987602259    0.7132028725504717
     0.6686722518324153    0.0830329049327637    0.7132058406237133
     0.6686723945615305    0.5830322847150720    0.7132069106266199
     0.1651580631245057    0.3268509957292872    0.4835164738592109
     0.1651576159856068    0.8268505274876095    0.4835153734286491
     0.6651578891535592    0.3268464153976737    0.4835167622005040
     0.6651570834786401    0.8268466808650144    0.4835156975187846
     0.3405792155068612    0.1727773285858097    0.9803089350198780
     0.3405792802749497    0.6727778074158163    0.9803081783942035
     0.8405794990580873    0.1727787273552013    0.9803088239328237
     0.8405798894313939    0.6727799480635251    0.9803086604225137
     0.4168285155977822    0.0862517293177311    0.7129699697002501
     0.4168280032377756    0.5862516874320703    0.7129708963885516
     0.9168298693453659    0.0862521337186417    0.7129710443809225
     0.9168278665797898    0.5862517552744498    0.7129715485842351
     0.3320536967525303    0.4178213771428767    0.2117886698523187
     0.3320538175282539    0.9178217534508063    0.2117877767968111
     0.8320568995928193    0.4178186753400178    0.2117873804971055
     0.8320571847251058    0.9178187404662216    0.2117876139638294
     0.4129889275289239    0.3295625274024159    0.7142726690272984
     0.4129903462930208    0.8295660678011100    0.7142724184022015
     0.9129896630655158    0.3295635552525746    0.7142727205202983
     0.9129909564067886    0.8295665511178588    0.7142727595706866
     0.1675983664250999    0.0847983706388896    0.1037286131163761
     0.1675979542718707    0.5847975559996391    0.1037279680032298
     0.6675987180110790    0.0847946621898874    0.1037280603588708
     0.6675965373831626    0.5847947536081026    0.1037287366112430
     0.4233067533752353    0.3352506163498400    0.0956448189445432
     0.4233064481382687    0.8352508450244306    0.0956451087687721
     0.9233049156835865    0.3352576924670544    0.0956440497112144
     0.9233051232995823    0.8352578402933442    0.0956435904854682
     0.3347781924330777    0.1702666953974823    0.6110809912515456
     0.3347772977163753    0.6702658680096232    0.6110815208850934
     0.8347773915708678    0.1702653556474769    0.6110831603498592
     0.8347791787405522    0.6702651511102138    0.6110856204799461
     0.2631895454022769    0.0250377427304259    0.8438484507878889
     0.2631901064847235    0.5250382197135238    0.8438483557738128
     0.7631897144112072    0.0250386674022055    0.8438508068673205
     0.7631897418464512    0.5250389391284220    0.8438524736417370
     0.2601082076060200    0.2409383759471588    0.8379388958410683
     0.2601074363615641    0.7409373753789782    0.8379378213297543
     0.7601061447720462    0.2409375624500300    0.8379387976898760
     0.7601055169344230    0.7409368639416323    0.8379387624076777
     0.3295876090264589    0.4082806127034881    0.5956728790282640
     0.3295877166608243    0.9082806382916259    0.5956709428144248
     0.8295878581328436    0.4082807715097979    0.5956711165352889
     0.8295889035703972    0.9082802772860966    0.5956713460328446
     0.2361587862058277    0.2568769361680602    0.3464384966399153
     0.2361578575219294    0.7568765556170177    0.3464376022944470
     0.7361502157942064    0.2568614359722876    0.3464469019768167
     0.7361505076390952    0.7568617432640783    0.3464457100772364
     0.0172342247416644    0.2568003142075722    0.3385483067367861
     0.0172341499867971    0.7567999751423629    0.3385470070772398
     0.5172359568283369    0.2567969439268329    0.3385476344155990
     0.5172355882213485    0.7567973317198705    0.3385480557717219
     0.0808080736911666    0.1589519919622478    0.5952348276620504
     0.0808060882531160    0.6589475644548132    0.5952316924297200
     0.5808061885162900    0.1589511168608460    0.5952372085023027
     0.5808040265400520    0.6589461067749126    0.5952352154223300
     0.9972057770818405    0.9960144313003623    0.8058589155065350
     0.9972053247474247    0.4960126357379604    0.8058604644156472
     0.4972041195687726    0.9960117271881536    0.8058591290122783
     0.4972042782968892    0.4960109063130670    0.8058607232783837
     0.9999887809711578    0.9995816890359503    0.3072142142930584
     0.9999887402283923    0.4995818343508237    0.3072134597090816
     0.4999933202200781    0.9995795021843007    0.3072167605153956
     0.4999921993915427    0.4995787252901568    0.3072170486601608
     0.1687976281356145    0.3363351266719692    0.1074471089353381
     0.1687979998909258    0.8363358069586641    0.1074459515355040
     0.6687975959961745    0.3363296722805512    0.1074476773487810
     0.6687977756166322    0.8363294684803760    0.1074471958302838
     0.4834823042198412    0.2514444305180235    0.8461958648511008
     0.4834823849268602    0.7514442598857394    0.8461966478464484
     0.9834820053373667    0.2514455427211091    0.8461979000059655
     0.9834817907184037    0.7514453927192134    0.8461984583668807
     0.0791841983459293    0.4159242814956817    0.6030851927011860
     0.0791841236343414    0.9159254686034018    0.6030846752816944
     0.5791840925886372    0.4159235041604283    0.6030857269140336
     0.5791847473985733    0.9159251346156101    0.6030844664067185
     0.2338010446055289    0.4778244619342574    0.3514108519388517
     0.2338003900275944    0.9778231181530047    0.3514106970835020
     0.7338070721011213    0.4778182117780554    0.3514049260561808
     0.7338073372705368    0.9778172060039683    0.3514046453577776
     0.4256981239829302    0.0894198768471960    0.0919674186383426
     0.4256968257497384    0.5894194998019348    0.0919672863117475
     0.9257000086052114    0.0894283950620455    0.0919637019012209
     0.9257000769612094    0.5894287402422206    0.0919626686608881

  0.00000000E+00  0.00000000E+00  0.00000000E+00
  0.00000000E+00  0.00000000E+00  0.00000000E+00
  0.00000000E+00  0.00000000E+00  0.00000000E+00
  0.00000000E+00  0.00000000E+00  0.00000000E+00
  0.00000000E+00  0.00000000E+00  0.00000000E+00
  0.00000000E+00  0.00000000E+00  0.00000000E+00
  0.00000000E+00  0.00000000E+00  0.00000000E+00
  0.00000000E+00  0.00000000E+00  0.00000000E+00
  0.00000000E+00  0.00000000E+00  0.00000000E+00
  0.00000000E+00  0.00000000E+00  0.00000000E+00
  0.00000000E+00  0.00000000E+00  0.00000000E+00
  0.00000000E+00  0.00000000E+00  0.00000000E+00
  0.00000000E+00  0.00000000E+00  0.00000000E+00
  0.00000000E+00  0.00000000E+00  0.00000000E+00
  0.00000000E+00  0.00000000E+00  0.00000000E+00
  0.00000000E+00  0.00000000E+00  0.00000000E+00
  0.00000000E+00  0.00000000E+00  0.00000000E+00
  0.00000000E+00  0.00000000E+00  0.00000000E+00
  0.00000000E+00  0.00000000E+00  0.00000000E+00
  0.00000000E+00  0.00000000E+00  0.00000000E+00
  0.00000000E+00  0.00000000E+00  0.00000000E+00
  0.00000000E+00  0.00000000E+00  0.00000000E+00
  0.00000000E+00  0.00000000E+00  0.00000000E+00
  0.00000000E+00  0.00000000E+00  0.00000000E+00
  0.00000000E+00  0.00000000E+00  0.00000000E+00
  0.00000000E+00  0.00000000E+00  0.00000000E+00
  0.00000000E+00  0.00000000E+00  0.00000000E+00
  0.00000000E+00  0.00000000E+00  0.00000000E+00
  0.00000000E+00  0.00000000E+00  0.00000000E+00
  0.00000000E+00  0.00000000E+00  0.00000000E+00
  0.00000000E+00  0.00000000E+00  0.00000000E+00
  0.00000000E+00  0.00000000E+00  0.00000000E+00
  0.00000000E+00  0.00000000E+00  0.00000000E+00
  0.00000000E+00  0.00000000E+00  0.00000000E+00
  0.00000000E+00  0.00000000E+00  0.00000000E+00
  0.00000000E+00  0.00000000E+00  0.00000000E+00
  0.00000000E+00  0.00000000E+00  0.00000000E+00
  0.00000000E+00  0.00000000E+00  0.00000000E+00
  0.00000000E+00  0.00000000E+00  0.00000000E+00
  0.00000000E+00  0.00000000E+00  0.00000000E+00
  0.00000000E+00  0.00000000E+00  0.00000000E+00
  0.00000000E+00  0.00000000E+00  0.00000000E+00
  0.00000000E+00  0.00000000E+00  0.00000000E+00
  0.00000000E+00  0.00000000E+00  0.00000000E+00
  0.00000000E+00  0.00000000E+00  0.00000000E+00
  0.00000000E+00  0.00000000E+00  0.00000000E+00
  0.00000000E+00  0.00000000E+00  0.00000000E+00
  0.00000000E+00  0.00000000E+00  0.00000000E+00
  0.00000000E+00  0.00000000E+00  0.00000000E+00
  0.00000000E+00  0.00000000E+00  0.00000000E+00
  0.00000000E+00  0.00000000E+00  0.00000000E+00
  0.00000000E+00  0.00000000E+00  0.00000000E+00
  0.00000000E+00  0.00000000E+00  0.00000000E+00
  0.00000000E+00  0.00000000E+00  0.00000000E+00
  0.00000000E+00  0.00000000E+00  0.00000000E+00
  0.00000000E+00  0.00000000E+00  0.00000000E+00
  0.00000000E+00  0.00000000E+00  0.00000000E+00
  0.00000000E+00  0.00000000E+00  0.00000000E+00
  0.00000000E+00  0.00000000E+00  0.00000000E+00
  0.00000000E+00  0.00000000E+00  0.00000000E+00
  0.00000000E+00  0.00000000E+00  0.00000000E+00
  0.00000000E+00  0.00000000E+00  0.00000000E+00
  0.00000000E+00  0.00000000E+00  0.00000000E+00
  0.00000000E+00  0.00000000E+00  0.00000000E+00
  0.00000000E+00  0.00000000E+00  0.00000000E+00
  0.00000000E+00  0.00000000E+00  0.00000000E+00
  0.00000000E+00  0.00000000E+00  0.00000000E+00
  0.00000000E+00  0.00000000E+00  0.00000000E+00
  0.00000000E+00  0.00000000E+00  0.00000000E+00
  0.00000000E+00  0.00000000E+00  0.00000000E+00
  0.00000000E+00  0.00000000E+00  0.00000000E+00
  0.00000000E+00  0.00000000E+00  0.00000000E+00
  0.00000000E+00  0.00000000E+00  0.00000000E+00
  0.00000000E+00  0.00000000E+00  0.00000000E+00
  0.00000000E+00  0.00000000E+00  0.00000000E+00
  0.00000000E+00  0.00000000E+00  0.00000000E+00
  0.00000000E+00  0.00000000E+00  0.00000000E+00
  0.00000000E+00  0.00000000E+00  0.00000000E+00
  0.00000000E+00  0.00000000E+00  0.00000000E+00
  0.00000000E+00  0.00000000E+00  0.00000000E+00
  0.00000000E+00  0.00000000E+00  0.00000000E+00
  0.00000000E+00  0.00000000E+00  0.00000000E+00
  0.00000000E+00  0.00000000E+00  0.00000000E+00
  0.00000000E+00  0.00000000E+00  0.00000000E+00
  0.00000000E+00  0.00000000E+00  0.00000000E+00
  0.00000000E+00  0.00000000E+00  0.00000000E+00
  0.00000000E+00  0.00000000E+00  0.00000000E+00
  0.00000000E+00  0.00000000E+00  0.00000000E+00
  0.00000000E+00  0.00000000E+00  0.00000000E+00
  0.00000000E+00  0.00000000E+00  0.00000000E+00
  0.00000000E+00  0.00000000E+00  0.00000000E+00
  0.00000000E+00  0.00000000E+00  0.00000000E+00
  0.00000000E+00  0.00000000E+00  0.00000000E+00
  0.00000000E+00  0.00000000E+00  0.00000000E+00
  0.00000000E+00  0.00000000E+00  0.00000000E+00
  0.00000000E+00  0.00000000E+00  0.00000000E+00
  0.00000000E+00  0.00000000E+00  0.00000000E+00
  0.00000000E+00  0.00000000E+00  0.00000000E+00
  0.00000000E+00  0.00000000E+00  0.00000000E+00
  0.00000000E+00  0.00000000E+00  0.00000000E+00
  0.00000000E+00  0.00000000E+00  0.00000000E+00
  0.00000000E+00  0.00000000E+00  0.00000000E+00
  0.00000000E+00  0.00000000E+00  0.00000000E+00
  0.00000000E+00  0.00000000E+00  0.00000000E+00
  0.00000000E+00  0.00000000E+00  0.00000000E+00
  0.00000000E+00  0.00000000E+00  0.00000000E+00
  0.00000000E+00  0.00000000E+00  0.00000000E+00
  0.00000000E+00  0.00000000E+00  0.00000000E+00
  0.00000000E+00  0.00000000E+00  0.00000000E+00
  0.00000000E+00  0.00000000E+00  0.00000000E+00
  0.00000000E+00  0.00000000E+00  0.00000000E+00
  0.00000000E+00  0.00000000E+00  0.00000000E+00
