System                                  
   1.0000000000000000     
    11.4009387477082118   -0.1270461853059910   -0.2333408100202317
    -5.7172201767325017    9.9979219821615430    0.0770862630575056
     0.0362140596339119    0.0921245990614989    9.2636120848112711
  Li              Mn              Co              Ni              O             
    12    12     8    12    64
Direct
     0.1702124052027720    0.3343283518366958    0.8974918630507110
     0.1665843035900046    0.8383620496874908    0.8975397540071574
     0.6752466329933158    0.3397895099195268    0.8949691802169029
     0.6662968659151650    0.8342101271452645    0.8984241330832698
     0.4991224734835532    0.9992085495681456    0.9903339075689412
     0.4999580801861617    0.5022549917259217    0.4940950745380341
     0.4965821317167661    0.9913391139010304    0.4944431103547341
     0.9932471329943470    0.4984048776852008    0.4957805414318067
     0.3317080618842896    0.1652127735052958    0.3967845891524370
     0.3276809570733359    0.6611467389724832    0.4070655792378023
     0.8321559226337311    0.1632790995197246    0.3994327970394760
     0.8309718349671463    0.6653279640822984    0.4040643317857692
     0.0819853548567672    0.4140637308334996    0.2073680375215393
     0.0856542291663322    0.9184639488765937    0.2087637394237686
     0.5867382890718638    0.4176500736958075    0.2074895100843507
     0.5854459554386758    0.9138719294304587    0.2141645027612527
     0.0862472195312232    0.1673204928665041    0.2065371911656963
     0.0836696828328472    0.6689303895529786    0.2098577413771623
     0.5866876468506633    0.1716188518821512    0.2101599614305416
     0.5850619805971213    0.6694473422698035    0.2091739172758507
     0.1713523812925538    0.0830264143524339    0.7022016841794867
     0.1620868435371021    0.5810009076403042    0.7259938192471355
     0.6720600174584125    0.0809904738661742    0.7104029899630340
     0.6657564706918738    0.5847542185415183    0.7252281618177309
     0.1663064847541784    0.3272716369644657    0.4812252750848514
     0.1685519673207691    0.8330421844565613    0.4849817041962839
     0.6662110307338485    0.3286151062197065    0.4806375013443874
     0.6713503506203012    0.8337065669309617    0.4855808577776821
     0.3439740895319803    0.1773692907671062    0.9790663076842272
     0.3323643174135594    0.6663865105300185    0.9867692618314735
     0.8447584303616463    0.1710123129385680    0.9814294737398784
     0.8409521598519056    0.6744586768853773    0.9852328246437891
     0.4218973564227236    0.0901876145068756    0.7093308969249377
     0.4127723941094777    0.5829162068694465    0.7200163321315705
     0.9213354767601613    0.0868517591770208    0.7052900089336456
     0.9136086444704872    0.5844580999130212    0.7201037887548647
     0.3312488611085644    0.4183343337175705    0.2030741009289580
     0.3309037947580239    0.9137952608912143    0.2113390624638996
     0.8323979320583269    0.4178473110414632    0.2040881848931690
     0.8343833463105624    0.9164671423145438    0.2101029685789202
     0.4154324174779757    0.3334584276571390    0.7146522893800634
     0.4092128048355890    0.8267466575338295    0.7147887364733875
     0.9129480251284939    0.3308069340836843    0.7171475933833630
     0.9143098565588176    0.8326813166778092    0.7087984806980705
     0.1735674126355068    0.0877822323098887    0.1015341929441339
     0.1710087517500997    0.5856582205298863    0.1107029347917094
     0.6670509902145944    0.0827063777592687    0.1010916095021915
     0.6700215349842583    0.5864874111384502    0.1059546810861577
     0.4171157207428322    0.3264055565072728    0.0926297587546514
     0.4180505527402408    0.8363285357344818    0.0965267851948941
     0.9203367711000017    0.3307267523673960    0.0933117695563706
     0.9207154234361831    0.8305373768528789    0.0981396158978213
     0.3413227199276001    0.1758364722445317    0.6060683509938907
     0.3273532170054869    0.6613952231881062    0.6175281793065227
     0.8385035250814965    0.1716729535664786    0.6093216385500017
     0.8306480647277998    0.6655387429500065    0.6162166514245164
     0.2676916866578331    0.0279506749318478    0.8379353676925156
     0.2544095260558131    0.5198369976864332    0.8531656469192841
     0.7639132955455487    0.0228247965101510    0.8422044986993500
     0.7590314550911538    0.5241912615736826    0.8511988333232616
     0.2606650232751812    0.2399319688709927    0.8348062982358331
     0.2468958788269772    0.7293056685943741    0.8565603588488407
     0.7599240982494947    0.2368094808555598    0.8400291876882046
     0.7519136567885907    0.7342970771469093    0.8523288843186232
     0.3331814239997523    0.4131018514631302    0.5946604904204864
     0.3307872669031363    0.9083191040417891    0.5913661777957189
     0.8297538893461390    0.4100609619333083    0.5978964862904569
     0.8254607318385676    0.9098806374297381    0.5907954763354232
     0.2405527299258091    0.2619286942181618    0.3399606966530619
     0.2291994167714945    0.7491251534151762    0.3507240061176229
     0.7363595752698946    0.2567091351711764    0.3431911818382634
     0.7295325032577283    0.7493084274603504    0.3481887882447496
     0.0189914687631789    0.2568432441466616    0.3364624561735292
     0.0192877654122931    0.7603311663742656    0.3380094430339570
     0.5184454310093572    0.2581299395075258    0.3337940517538496
     0.5177044596992251    0.7578843857022377    0.3408182580883288
     0.0915280309666383    0.1719141442869893    0.5932867384568509
     0.0806689082888740    0.6621583082647310    0.6036948151119712
     0.5832860454924846    0.1596961460759800    0.5932762119261646
     0.5830332226467804    0.6643344384573573    0.6031962018192086
     0.0024157379540232    0.0008074271560194    0.8004352858188205
     0.9901647381842273    0.4934913940916177    0.8180415197979924
     0.5004551484130690    0.9980821773419463    0.8013604090701792
     0.4919079393163913    0.4948960319404986    0.8170508608735528
     0.0122928117376342    0.0062415244770603    0.3103410889483512
    -0.0037971687963927    0.4970742274851292    0.3035802738448093
     0.4999924073110558    1.0005909109486617    0.3046485727717170
     0.4982206949522461    0.4970303435528771    0.3019832836720882
     0.1655370547502406    0.3360292828931938    0.1027481219939322
     0.1686068258496320    0.8342031770591207    0.1063153590181501
     0.6691732358896174    0.3359872652511827    0.1032548373024610
     0.6584297384633369    0.8305761982909575    0.1041184351279424
     0.4850080077995967    0.2542174540329442    0.8439271298326736
     0.4747422197281188    0.7454331228233011    0.8526869377249455
     0.9836654654223862    0.2487778273230109    0.8447287933376455
     0.9799543021518775    0.7492985770943544    0.8499180668211024
     0.0771944582576121    0.4172553786813520    0.6066980467897187
     0.0981660168155705    0.9166857048317366    0.5977622586281347
     0.5798178222645135    0.4196039697435796    0.6071952881727787
     0.5924497523447992    0.9197840147652321    0.5964984630410884
     0.2297495354390824    0.4747224801613788    0.3506728778088445
     0.2429674189282021    0.9778567727914271    0.3429750902546403
     0.7343383783853623    0.4779546226341518    0.3461861820838305
     0.7337832266440006    0.9776927249980676    0.3474618640832878
     0.4270225502720787    0.0934985247955162    0.0861317106085701
     0.4159486353509853    0.5910598912948125    0.0968610343499720
     0.9203620075052298    0.0948905432648313    0.0948217821591733
     0.9216255634182827    0.5931859069972608    0.0948101554408393

  0.00000000E+00  0.00000000E+00  0.00000000E+00
  0.00000000E+00  0.00000000E+00  0.00000000E+00
  0.00000000E+00  0.00000000E+00  0.00000000E+00
  0.00000000E+00  0.00000000E+00  0.00000000E+00
  0.00000000E+00  0.00000000E+00  0.00000000E+00
  0.00000000E+00  0.00000000E+00  0.00000000E+00
  0.00000000E+00  0.00000000E+00  0.00000000E+00
  0.00000000E+00  0.00000000E+00  0.00000000E+00
  0.00000000E+00  0.00000000E+00  0.00000000E+00
  0.00000000E+00  0.00000000E+00  0.00000000E+00
  0.00000000E+00  0.00000000E+00  0.00000000E+00
  0.00000000E+00  0.00000000E+00  0.00000000E+00
  0.00000000E+00  0.00000000E+00  0.00000000E+00
  0.00000000E+00  0.00000000E+00  0.00000000E+00
  0.00000000E+00  0.00000000E+00  0.00000000E+00
  0.00000000E+00  0.00000000E+00  0.00000000E+00
  0.00000000E+00  0.00000000E+00  0.00000000E+00
  0.00000000E+00  0.00000000E+00  0.00000000E+00
  0.00000000E+00  0.00000000E+00  0.00000000E+00
  0.00000000E+00  0.00000000E+00  0.00000000E+00
  0.00000000E+00  0.00000000E+00  0.00000000E+00
  0.00000000E+00  0.00000000E+00  0.00000000E+00
  0.00000000E+00  0.00000000E+00  0.00000000E+00
  0.00000000E+00  0.00000000E+00  0.00000000E+00
  0.00000000E+00  0.00000000E+00  0.00000000E+00
  0.00000000E+00  0.00000000E+00  0.00000000E+00
  0.00000000E+00  0.00000000E+00  0.00000000E+00
  0.00000000E+00  0.00000000E+00  0.00000000E+00
  0.00000000E+00  0.00000000E+00  0.00000000E+00
  0.00000000E+00  0.00000000E+00  0.00000000E+00
  0.00000000E+00  0.00000000E+00  0.00000000E+00
  0.00000000E+00  0.00000000E+00  0.00000000E+00
  0.00000000E+00  0.00000000E+00  0.00000000E+00
  0.00000000E+00  0.00000000E+00  0.00000000E+00
  0.00000000E+00  0.00000000E+00  0.00000000E+00
  0.00000000E+00  0.00000000E+00  0.00000000E+00
  0.00000000E+00  0.00000000E+00  0.00000000E+00
  0.00000000E+00  0.00000000E+00  0.00000000E+00
  0.00000000E+00  0.00000000E+00  0.00000000E+00
  0.00000000E+00  0.00000000E+00  0.00000000E+00
  0.00000000E+00  0.00000000E+00  0.00000000E+00
  0.00000000E+00  0.00000000E+00  0.00000000E+00
  0.00000000E+00  0.00000000E+00  0.00000000E+00
  0.00000000E+00  0.00000000E+00  0.00000000E+00
  0.00000000E+00  0.00000000E+00  0.00000000E+00
  0.00000000E+00  0.00000000E+00  0.00000000E+00
  0.00000000E+00  0.00000000E+00  0.00000000E+00
  0.00000000E+00  0.00000000E+00  0.00000000E+00
  0.00000000E+00  0.00000000E+00  0.00000000E+00
  0.00000000E+00  0.00000000E+00  0.00000000E+00
  0.00000000E+00  0.00000000E+00  0.00000000E+00
  0.00000000E+00  0.00000000E+00  0.00000000E+00
  0.00000000E+00  0.00000000E+00  0.00000000E+00
  0.00000000E+00  0.00000000E+00  0.00000000E+00
  0.00000000E+00  0.00000000E+00  0.00000000E+00
  0.00000000E+00  0.00000000E+00  0.00000000E+00
  0.00000000E+00  0.00000000E+00  0.00000000E+00
  0.00000000E+00  0.00000000E+00  0.00000000E+00
  0.00000000E+00  0.00000000E+00  0.00000000E+00
  0.00000000E+00  0.00000000E+00  0.00000000E+00
  0.00000000E+00  0.00000000E+00  0.00000000E+00
  0.00000000E+00  0.00000000E+00  0.00000000E+00
  0.00000000E+00  0.00000000E+00  0.00000000E+00
  0.00000000E+00  0.00000000E+00  0.00000000E+00
  0.00000000E+00  0.00000000E+00  0.00000000E+00
  0.00000000E+00  0.00000000E+00  0.00000000E+00
  0.00000000E+00  0.00000000E+00  0.00000000E+00
  0.00000000E+00  0.00000000E+00  0.00000000E+00
  0.00000000E+00  0.00000000E+00  0.00000000E+00
  0.00000000E+00  0.00000000E+00  0.00000000E+00
  0.00000000E+00  0.00000000E+00  0.00000000E+00
  0.00000000E+00  0.00000000E+00  0.00000000E+00
  0.00000000E+00  0.00000000E+00  0.00000000E+00
  0.00000000E+00  0.00000000E+00  0.00000000E+00
  0.00000000E+00  0.00000000E+00  0.00000000E+00
  0.00000000E+00  0.00000000E+00  0.00000000E+00
  0.00000000E+00  0.00000000E+00  0.00000000E+00
  0.00000000E+00  0.00000000E+00  0.00000000E+00
  0.00000000E+00  0.00000000E+00  0.00000000E+00
  0.00000000E+00  0.00000000E+00  0.00000000E+00
  0.00000000E+00  0.00000000E+00  0.00000000E+00
  0.00000000E+00  0.00000000E+00  0.00000000E+00
  0.00000000E+00  0.00000000E+00  0.00000000E+00
  0.00000000E+00  0.00000000E+00  0.00000000E+00
  0.00000000E+00  0.00000000E+00  0.00000000E+00
  0.00000000E+00  0.00000000E+00  0.00000000E+00
  0.00000000E+00  0.00000000E+00  0.00000000E+00
  0.00000000E+00  0.00000000E+00  0.00000000E+00
  0.00000000E+00  0.00000000E+00  0.00000000E+00
  0.00000000E+00  0.00000000E+00  0.00000000E+00
  0.00000000E+00  0.00000000E+00  0.00000000E+00
  0.00000000E+00  0.00000000E+00  0.00000000E+00
  0.00000000E+00  0.00000000E+00  0.00000000E+00
  0.00000000E+00  0.00000000E+00  0.00000000E+00
  0.00000000E+00  0.00000000E+00  0.00000000E+00
  0.00000000E+00  0.00000000E+00  0.00000000E+00
  0.00000000E+00  0.00000000E+00  0.00000000E+00
  0.00000000E+00  0.00000000E+00  0.00000000E+00
  0.00000000E+00  0.00000000E+00  0.00000000E+00
  0.00000000E+00  0.00000000E+00  0.00000000E+00
  0.00000000E+00  0.00000000E+00  0.00000000E+00
  0.00000000E+00  0.00000000E+00  0.00000000E+00
  0.00000000E+00  0.00000000E+00  0.00000000E+00
  0.00000000E+00  0.00000000E+00  0.00000000E+00
  0.00000000E+00  0.00000000E+00  0.00000000E+00
  0.00000000E+00  0.00000000E+00  0.00000000E+00
  0.00000000E+00  0.00000000E+00  0.00000000E+00
  0.00000000E+00  0.00000000E+00  0.00000000E+00
