System                                  
   1.0000000000000000     
   -14.1638806181232830    2.5855240690150385  -10.2877070367193593
    -8.1023497246858902    1.1448938926165246   -2.6628249388728107
    -7.7645559025580111    3.8484017905540817   -4.6755406563362145
  Li              Ca              Ag            
     1     2     1
Direct
     0.0000273415162852   -0.0000141315512926   -0.0000166941872607
     0.6628788050634649    0.8257138444403828    0.1743147406532848
     0.3370837263202640    0.1742760334672184    0.8257253493309830
     0.5000101270999922    0.0000242536436899   -0.0000233957970064

 -0.00000000E+00  0.00000000E+00 -0.00000000E+00
 -0.00000000E+00  0.00000000E+00 -0.00000000E+00
 -0.00000000E+00  0.00000000E+00 -0.00000000E+00
 -0.00000000E+00  0.00000000E+00 -0.00000000E+00
