System                                  
   1.0000000000000000     
    10.2852317212148616   -0.0002002927936414   -5.4002187051931321
    -2.8351896634306994    9.8867470578824275   -5.4002254834420542
     0.0099513128610022    0.0132069081834311   12.5149077806612770
  Mg              Mn              O             
    15    32    64
Direct
     0.1902016710352000    0.3125398722637261    0.3803618170312116
     0.1873042886834535    0.3097568994180244    0.8695504890189868
     0.1902222086940045    0.8178167563908071    0.3803810272918945
     0.1873801096689238    0.8134167105476141    0.8767609000540969
     0.6865487015545099    0.3125230585950013    0.3731636865398526
     0.6822421990068490    0.3097720876762353    0.8695689349716874
     0.6865214376154880    0.8105892231758907    0.3730853809388038
     0.6895007920872993    0.8134646115905928    0.8768717468871347
     0.3112712793904049    0.1886448018970123    0.1250019288168052
     0.3112251897913857    0.6863230817011132    0.1250548709690745
     0.3123733964595143    0.6873866915401226    0.6247355285130199
     0.8137808435726864    0.1886518066254745    0.1250471408407802
     0.8126427775215964    0.1875953247948221    0.6252046991529636
     0.8138843691675618    0.6864017200520744    0.1251126487861441
     0.8124574929032201    0.6874801210468447    0.6249510904226148
     0.0003401433980044    1.0012128323976939    0.2524505132617130
    -0.0005112700105475   -0.0010112105928985    0.7491614051092614
     1.0015771738446217    0.5007536795647438    0.2515372361559612
     0.9994753276946197    0.5001714300384825    0.7491609793379415
     0.5000229657222004    0.9998101645236445    0.2496570730951203
     0.5006403612157198    0.0009554491588691    0.7520168948605108
     0.4966685927681039    0.4979025503447772    0.2457633010011951
     0.5006282817250646    0.5011229755706107    0.7520822526857668
     0.9991880158152697    0.2499921949392215   -0.0016260635711423
     0.9988543590934648    0.2483811218272345    0.4978173817275546
     1.0021350644166900    0.7511133000746232    0.0042708908302920
    -0.0001451724416085    0.7503165643190903    0.5008209921975795
     0.4987511166898645    0.2477826077529839   -0.0025188915870201
     0.4989743631333834    0.2483501066870415    0.4978242241178558
     0.5003158615962910    0.7505816205457746    0.0006223039024838
     0.5009805425561091    0.7503234305709618    0.5008309604474097
     0.2521513567811031    1.0012510283597491    0.2525468567333459
     0.2514659045879039    1.0009529783136080    0.7520510436953243
     0.2499198436257023    0.5007625959290575    0.2515694119937172
     0.2514789851832873    0.5011249113712217    0.7520638893502638
     0.7495886327140091    0.9998145871846298    0.2496375743423090
     0.7496953067583578    0.9989707543431652    0.7491177394791032
     0.7489945879363711    0.4979140998229639    0.2457669827715795
     0.7496775737594986    0.5001418725828346    0.7491333555474251
     0.0021427210129960    1.0032346234723006    0.0042916711657626
    -0.0011538387133000   -0.0006309260329038    0.4978067617296834
    -0.0008124966640328    0.4984169964531905   -0.0016279594284912
     0.9998359583383850    0.5004546574491010    0.5007964969542891
     0.5002739823167379    0.9999720726285025    0.0005024404766401
     0.4989856678312281   -0.0005837765912541    0.4978295463978893
     0.4988294580253628    0.4998553963341885   -0.0023290162335714
     0.5009496579773164    0.5004273950052882    0.5007909682380068
     0.3764087887589103    0.3889282372018172    0.2529239442573942
     0.3911889094844061    0.4082034583945177    0.7823973152143094
     0.3748403430073627    0.8867471658122541    0.2492277768972117
     0.3772977086827454    0.8883633176437300    0.7545344592038992
     0.8764328419062917    0.3889507005291793    0.2529506297643827
     0.8768299943328567    0.3893738934049980    0.7536076327751448
     0.8744556376958826    0.8868503622707845    0.2491978924600292
     0.8782494123002140    0.8887888147623100    0.7564596294783094
     0.3761627152338161    0.1093764867906619    0.4688218720920219
     0.3877426803775859    0.1254157448138729    1.0008114428408597
     0.3856783480037066    0.6231196493247354    0.4963028383752466
     0.3878291387496439    0.6254968771709427    1.0010299840149428
     0.8837139883704380    0.1226734420229234    0.4954181181186127
     0.8858639793113436    0.1235477810121017    0.9969066051324962
     0.8821933128791964    0.6216597456637688    0.4933498917868269
     0.8858789245232208    0.6234250576529228    0.9969122623130087
     0.0922024634484341    0.1092814056087403    0.4686024113885224
     0.1110355437713452    0.1235803942742692    0.9969332414306511
     0.1105805005822561    0.6231393218818272    0.4963240753565969
     0.1110164770667005    0.6234031725336885    0.9969185787115390
     0.6118719724188494    0.1227164518377760    0.4954914367969613
     0.6131286881783732    0.1254765687091371    1.0008706379346628
     0.6111190603814383    0.6216209124876717    0.4933022873001828
     0.6132409489226599    0.6255682028444349    1.0011026999890325
     0.1233170995148665    0.1104854589902703    0.2471286501328751
     0.1218116554216102    0.1095999557091574    0.7448293079335161
     0.1241996369790149    0.6129721433888320    0.2484625161093553
     0.1227388993115444    0.6122384821629713    0.7469242247444939
     0.6232479864962300    0.1110455749108326    0.2463549469764758
     0.6231791995252229    0.1096496759617723    0.7449535883966517
     0.6173720685242626    0.6063286279501763    0.2348264489612600
     0.6242681639896169    0.6122956404216773    0.7470453405507645
     0.1241340705932602    0.3853878062074980    0.2483604907183947
     0.1218315566198352    0.3852270173576535    0.7448773764958789
     0.1232873513682842    0.8865457584595483    0.2470659843843027
     0.1227120903108785    0.8846499869075566    0.7468354309386069
     0.6174186226765358    0.3785796220125632    0.2348992844023133
     0.6231396505302126    0.3853036233861454    0.7450005148426393
     0.6232077924379585    0.8852265542032725    0.2462783179357894
     0.6242244486039129    0.8846837417118389    0.7469387286106383
     0.1145850032147778    0.3758088632026041    0.0015648320498849
     0.1149095732684430    0.3782595500272081    0.5052373657863027
     0.1210322238688082    0.8822238809771392    0.0143915227362733
     0.1148886486099089    0.8768988639036607    0.5051965678018503
     0.6131436532146886    0.3765024902653491    0.0028006896244342
     0.6153515173098195    0.3773810009105719    0.5031044238921195
     0.6147017647343003    0.8767825642684759    0.0036134705250364
     0.6153449285675084    0.8756451072361813    0.5030496241367706
     0.3749131176086364    0.1124891462706017    0.2492917170706807
     0.3911574761438272    0.1243828750027159    0.7822711092067445
     0.3764391363045680    0.6140437470485934    0.2530280907218429
     0.3772934400171059    0.6162327365644666    0.7545619195740635
     0.8744850650007274    0.1123556006582482    0.2492184813731874
     0.8768707939370476    0.1142999230283903    0.7536620038799998
     0.8765058128608670    0.6140686095237029    0.2530430693157701
     0.8781957614633521    0.6176231062339311    0.7563971237095001
     0.3896498158958668    0.3764519723379341    0.0027582451587347
     0.3903682892531557    0.3783251059441916    0.5052828869982485
     0.3889315384277278    0.8767141907467028    0.0034631875723756
     0.3903690792383528    0.8768576906004987    0.5052548459412324
     0.8869691474405736    0.3757741581222098    0.0014985380234992
     0.8877455290010627    0.3772520141769406    0.5029755560553225
     0.8933875291732767    0.8823292931202441    0.0145912545821405
     0.8877221445563895    0.8756522567232186    0.5029357488683611

  0.00000000E+00  0.00000000E+00  0.00000000E+00
  0.00000000E+00  0.00000000E+00  0.00000000E+00
  0.00000000E+00  0.00000000E+00  0.00000000E+00
  0.00000000E+00  0.00000000E+00  0.00000000E+00
  0.00000000E+00  0.00000000E+00  0.00000000E+00
  0.00000000E+00  0.00000000E+00  0.00000000E+00
  0.00000000E+00  0.00000000E+00  0.00000000E+00
  0.00000000E+00  0.00000000E+00  0.00000000E+00
  0.00000000E+00  0.00000000E+00  0.00000000E+00
  0.00000000E+00  0.00000000E+00  0.00000000E+00
  0.00000000E+00  0.00000000E+00  0.00000000E+00
  0.00000000E+00  0.00000000E+00  0.00000000E+00
  0.00000000E+00  0.00000000E+00  0.00000000E+00
  0.00000000E+00  0.00000000E+00  0.00000000E+00
  0.00000000E+00  0.00000000E+00  0.00000000E+00
  0.00000000E+00  0.00000000E+00  0.00000000E+00
  0.00000000E+00  0.00000000E+00  0.00000000E+00
  0.00000000E+00  0.00000000E+00  0.00000000E+00
  0.00000000E+00  0.00000000E+00  0.00000000E+00
  0.00000000E+00  0.00000000E+00  0.00000000E+00
  0.00000000E+00  0.00000000E+00  0.00000000E+00
  0.00000000E+00  0.00000000E+00  0.00000000E+00
  0.00000000E+00  0.00000000E+00  0.00000000E+00
  0.00000000E+00  0.00000000E+00  0.00000000E+00
  0.00000000E+00  0.00000000E+00  0.00000000E+00
  0.00000000E+00  0.00000000E+00  0.00000000E+00
  0.00000000E+00  0.00000000E+00  0.00000000E+00
  0.00000000E+00  0.00000000E+00  0.00000000E+00
  0.00000000E+00  0.00000000E+00  0.00000000E+00
  0.00000000E+00  0.00000000E+00  0.00000000E+00
  0.00000000E+00  0.00000000E+00  0.00000000E+00
  0.00000000E+00  0.00000000E+00  0.00000000E+00
  0.00000000E+00  0.00000000E+00  0.00000000E+00
  0.00000000E+00  0.00000000E+00  0.00000000E+00
  0.00000000E+00  0.00000000E+00  0.00000000E+00
  0.00000000E+00  0.00000000E+00  0.00000000E+00
  0.00000000E+00  0.00000000E+00  0.00000000E+00
  0.00000000E+00  0.00000000E+00  0.00000000E+00
  0.00000000E+00  0.00000000E+00  0.00000000E+00
  0.00000000E+00  0.00000000E+00  0.00000000E+00
  0.00000000E+00  0.00000000E+00  0.00000000E+00
  0.00000000E+00  0.00000000E+00  0.00000000E+00
  0.00000000E+00  0.00000000E+00  0.00000000E+00
  0.00000000E+00  0.00000000E+00  0.00000000E+00
  0.00000000E+00  0.00000000E+00  0.00000000E+00
  0.00000000E+00  0.00000000E+00  0.00000000E+00
  0.00000000E+00  0.00000000E+00  0.00000000E+00
  0.00000000E+00  0.00000000E+00  0.00000000E+00
  0.00000000E+00  0.00000000E+00  0.00000000E+00
  0.00000000E+00  0.00000000E+00  0.00000000E+00
  0.00000000E+00  0.00000000E+00  0.00000000E+00
  0.00000000E+00  0.00000000E+00  0.00000000E+00
  0.00000000E+00  0.00000000E+00  0.00000000E+00
  0.00000000E+00  0.00000000E+00  0.00000000E+00
  0.00000000E+00  0.00000000E+00  0.00000000E+00
  0.00000000E+00  0.00000000E+00  0.00000000E+00
  0.00000000E+00  0.00000000E+00  0.00000000E+00
  0.00000000E+00  0.00000000E+00  0.00000000E+00
  0.00000000E+00  0.00000000E+00  0.00000000E+00
  0.00000000E+00  0.00000000E+00  0.00000000E+00
  0.00000000E+00  0.00000000E+00  0.00000000E+00
  0.00000000E+00  0.00000000E+00  0.00000000E+00
  0.00000000E+00  0.00000000E+00  0.00000000E+00
  0.00000000E+00  0.00000000E+00  0.00000000E+00
  0.00000000E+00  0.00000000E+00  0.00000000E+00
  0.00000000E+00  0.00000000E+00  0.00000000E+00
  0.00000000E+00  0.00000000E+00  0.00000000E+00
  0.00000000E+00  0.00000000E+00  0.00000000E+00
  0.00000000E+00  0.00000000E+00  0.00000000E+00
  0.00000000E+00  0.00000000E+00  0.00000000E+00
  0.00000000E+00  0.00000000E+00  0.00000000E+00
  0.00000000E+00  0.00000000E+00  0.00000000E+00
  0.00000000E+00  0.00000000E+00  0.00000000E+00
  0.00000000E+00  0.00000000E+00  0.00000000E+00
  0.00000000E+00  0.00000000E+00  0.00000000E+00
  0.00000000E+00  0.00000000E+00  0.00000000E+00
  0.00000000E+00  0.00000000E+00  0.00000000E+00
  0.00000000E+00  0.00000000E+00  0.00000000E+00
  0.00000000E+00  0.00000000E+00  0.00000000E+00
  0.00000000E+00  0.00000000E+00  0.00000000E+00
  0.00000000E+00  0.00000000E+00  0.00000000E+00
  0.00000000E+00  0.00000000E+00  0.00000000E+00
  0.00000000E+00  0.00000000E+00  0.00000000E+00
  0.00000000E+00  0.00000000E+00  0.00000000E+00
  0.00000000E+00  0.00000000E+00  0.00000000E+00
  0.00000000E+00  0.00000000E+00  0.00000000E+00
  0.00000000E+00  0.00000000E+00  0.00000000E+00
  0.00000000E+00  0.00000000E+00  0.00000000E+00
  0.00000000E+00  0.00000000E+00  0.00000000E+00
  0.00000000E+00  0.00000000E+00  0.00000000E+00
  0.00000000E+00  0.00000000E+00  0.00000000E+00
  0.00000000E+00  0.00000000E+00  0.00000000E+00
  0.00000000E+00  0.00000000E+00  0.00000000E+00
  0.00000000E+00  0.00000000E+00  0.00000000E+00
  0.00000000E+00  0.00000000E+00  0.00000000E+00
  0.00000000E+00  0.00000000E+00  0.00000000E+00
  0.00000000E+00  0.00000000E+00  0.00000000E+00
  0.00000000E+00  0.00000000E+00  0.00000000E+00
  0.00000000E+00  0.00000000E+00  0.00000000E+00
  0.00000000E+00  0.00000000E+00  0.00000000E+00
  0.00000000E+00  0.00000000E+00  0.00000000E+00
  0.00000000E+00  0.00000000E+00  0.00000000E+00
  0.00000000E+00  0.00000000E+00  0.00000000E+00
  0.00000000E+00  0.00000000E+00  0.00000000E+00
  0.00000000E+00  0.00000000E+00  0.00000000E+00
  0.00000000E+00  0.00000000E+00  0.00000000E+00
  0.00000000E+00  0.00000000E+00  0.00000000E+00
  0.00000000E+00  0.00000000E+00  0.00000000E+00
  0.00000000E+00  0.00000000E+00  0.00000000E+00
  0.00000000E+00  0.00000000E+00  0.00000000E+00
  0.00000000E+00  0.00000000E+00  0.00000000E+00
