System                                  
   1.0000000000000000     
     9.6980506206884556   -2.9358135061956507   -0.0059604542370813
     9.6980498968200379    2.9358111177349624   -0.0059603109276790
     8.8123924306948727   -0.0000009582287362    5.0012935434395471
  Rb              Li              Fe              F             
     4     2     2    12
Direct
     0.2842352171369781    0.2842353039656063    0.2842353974591076
     0.1277202500275811    0.1277201796877124    0.1277202586413928
     0.8722797843756925    0.8722797929478188    0.8722797166080116
     0.7157647582846505    0.7157647378924163    0.7157645663730456
     0.4045271275658380    0.4045271107443399    0.4045270945032493
     0.5954729028490090    0.5954728934141496    0.5954729201585020
     0.5000000011496454    0.4999999964325161    0.4999999924878981
    -0.0000000028041882    0.0000000217923561   -0.0000000043666828
     0.1979971060201689    0.1979971858757160    0.7205714212847880
     0.1979970870391244    0.7205715035936001    0.1979971122170306
     0.8438714894743828    0.3903495326984566    0.3903494528465475
     0.8020028782517624    0.8020028576282310    0.2794285668066598
     0.2794285634749100    0.8020028308094729    0.8020028699308012
     0.6096505645148831    0.6096504786631600    0.1561284118645055
     0.6096504886162624    0.1561284007183162    0.6096506054769105
     0.1561285064530820    0.6096504488660273    0.6096505855263052
     0.3903494892366112    0.8438715857039474    0.3903494081898789
     0.3903494709953721    0.3903494487175256    0.8438715909833026
     0.8020029286285887    0.2794285553755756    0.8020028401639673
     0.7205713887096249    0.1979971344730344    0.1979971928447573

  0.00000000E+00  0.00000000E+00  0.00000000E+00
  0.00000000E+00  0.00000000E+00  0.00000000E+00
  0.00000000E+00  0.00000000E+00  0.00000000E+00
  0.00000000E+00  0.00000000E+00  0.00000000E+00
  0.00000000E+00  0.00000000E+00  0.00000000E+00
  0.00000000E+00  0.00000000E+00  0.00000000E+00
  0.00000000E+00  0.00000000E+00  0.00000000E+00
  0.00000000E+00  0.00000000E+00  0.00000000E+00
  0.00000000E+00  0.00000000E+00  0.00000000E+00
  0.00000000E+00  0.00000000E+00  0.00000000E+00
  0.00000000E+00  0.00000000E+00  0.00000000E+00
  0.00000000E+00  0.00000000E+00  0.00000000E+00
  0.00000000E+00  0.00000000E+00  0.00000000E+00
  0.00000000E+00  0.00000000E+00  0.00000000E+00
  0.00000000E+00  0.00000000E+00  0.00000000E+00
  0.00000000E+00  0.00000000E+00  0.00000000E+00
  0.00000000E+00  0.00000000E+00  0.00000000E+00
  0.00000000E+00  0.00000000E+00  0.00000000E+00
  0.00000000E+00  0.00000000E+00  0.00000000E+00
  0.00000000E+00  0.00000000E+00  0.00000000E+00
