System
1.0
9.55417163872665 -2.9088205505141733 -0.0155824607813709
9.55417163872665 2.9088205505141733 -0.0155824607813709
8.676656628940616 -0.0 4.945634969737158
Rb Li Fe F 
4 2 2 12 
direct
0.28437668816640455 0.28437668816640443 0.2843766881664045 Rb
0.1279735620487994 0.12797356204879934 0.1279735620487994 Rb
0.8720264379512008 0.8720264379512005 0.8720264379512007 Rb
0.7156233118335951 0.7156233118335947 0.7156233118335948 Rb
0.4057517077650872 0.405751707765087 0.4057517077650871 Li
0.5942482922348983 0.5942482922348981 0.5942482922348982 Li
0.5 0.49999999999999983 0.49999999999999994 Fe
0.0 0.0 0.0 Fe
0.1950241702955155 0.1950241702955154 0.7247564281030205 F
0.19502417029551558 0.7247564281030204 0.1950241702955155 F
0.8359301386467156 0.39304578790459227 0.3930457879045923 F
0.8049758297044848 0.8049758297044844 0.2752435718969797 F
0.2752435718969797 0.8049758297044843 0.8049758297044846 F
0.6069542120954076 0.6069542120954073 0.16406986135327736 F
0.6069542120954076 0.16406986135327734 0.6069542120954076 F
0.16406986135327747 0.6069542120954075 0.6069542120954076 F
0.39304578790459255 0.8359301386467153 0.3930457879045923 F
0.39304578790459244 0.3930457879045922 0.8359301386467155 F
0.8049758297044847 0.27524357189697946 0.8049758297044846 F
0.7247564281030207 0.19502417029551544 0.1950241702955155 F
