System
1.0
11.400938747708212 -0.127046185305991 -0.2333408100202317
-5.717220176732502 9.997921982161543 0.0770862630575056
0.0362140596339119 0.0921245990614989 9.263612084811271
Li Mn Co Ni O 
4 12 8 12 64 
direct
0.3320569079236144 0.1617552975617597 0.4028585676934693 Li
0.3320204335879048 0.6616681363082432 0.4029142911782597 Li
0.8328468962185093 0.1684189476100411 0.4026380940064721 Li
0.8328446225835408 0.6690222256354045 0.4021590438350181 Li
0.0849978868715116 0.4127906285228813 0.2091868226984995 Mn
0.0848201228103034 0.9133146500620426 0.2093943040695861 Mn
0.5841692545938603 0.4204715668403158 0.2119010487351341 Mn
0.5851465571839158 0.920344396447399 0.2117825016235208 Mn
0.0855785771113307 0.1652604945761638 0.2113135117209216 Mn
0.0855250051250141 0.6655114260745109 0.2104886221951191 Mn
0.5838517408428238 0.1712264310389324 0.2092547474503289 Mn
0.5849139358692198 0.6726659152237706 0.2080229446224462 Mn
0.1665261504097005 0.0818131121444818 0.7139516357309493 Mn
0.1669735555562888 0.5818579459150565 0.7129230096049335 Mn
0.665766409572348 0.0817766477311831 0.7112689195697608 Mn
0.665506838102824 0.5830348371663701 0.7116793805218034 Mn
0.1683292208411056 0.3282012083311994 0.4869471415371646 Co
0.1682684031938274 0.8287286297634157 0.4858923201017374 Co
0.66783635055327 0.3371617027840288 0.485395281180542 Co
0.6680530542568535 0.8366731456205558 0.4879466029451488 Co
0.3404045646539344 0.1736623099659875 0.9794338068120946 Co
0.34166058703101 0.6747242587537194 0.9782460230488859 Co
0.8407428685947265 0.1655814490383994 0.9799737798817826 Co
0.8395866432381368 0.6701625921169497 0.9810558986070644 Co
0.417448501700227 0.0861355925896693 0.7117984944919694 Ni
0.418120209656877 0.5864798623985862 0.7127425983122461 Ni
0.9144090465058241 0.081916711319315 0.7143764231051917 Ni
0.9164137204664025 0.5847231552928005 0.7114033043217801 Ni
0.3327091522270517 0.4154060673044195 0.2075395817978646 Ni
0.3326172771961419 0.9166657903790675 0.2071985880323733 Ni
0.8333565272873368 0.4185581082610482 0.2079133995668102 Ni
0.8320339077830247 0.9176848694616333 0.2078106580511251 Ni
0.4137212826192695 0.3316372012318571 0.7122880802935744 Ni
0.413991639816175 0.8317088429997067 0.7115135144645043 Ni
0.9186741370498982 0.331216485420643 0.7107517400955219 Ni
0.9159637227697389 0.8320050890290936 0.7134129814473652 Ni
0.1715799985535157 0.0844164326380062 0.1060056240719491 O
0.1728296165353213 0.5850155971843147 0.1056951075331219 O
0.6717637957314948 0.0888175461596914 0.1059570177877696 O
0.6726633701895107 0.5899516503806242 0.1055441233153727 O
0.4192187044470536 0.3350920375588663 0.0963918121278275 O
0.4183650401564382 0.8329510944121955 0.098130615563347 O
0.9194163025409021 0.3243360693765756 0.0948015134696704 O
0.9170102091876128 0.8240034311852175 0.0966057446313895 O
0.3341282630806473 0.1698971472649794 0.6109713548991946 O
0.3351635218124249 0.6696380165365025 0.6108274075908702 O
0.835402574967315 0.1656724259125689 0.610822263035036 O
0.8352568162768599 0.6699713689744486 0.610686008257676 O
0.2643320619487894 0.0271950223580933 0.8445798121844926 O
0.264577131546376 0.5267394805545148 0.8437446120882098 O
0.7616259773589387 0.0207178640847277 0.8409356156658697 O
0.7608623957433067 0.5224462805173904 0.8415818616859312 O
0.2623947517233408 0.2398002324306758 0.8394114771007285 O
0.2619479339330644 0.7395503901107993 0.8389981563970355 O
0.7626199761426362 0.2363925028851228 0.8415802737159338 O
0.7632253418315794 0.7382557570046707 0.8414197488194691 O
0.3217672214844097 0.40624796608314 0.5987256281300098 O
0.3197771622699683 0.9059960260682819 0.5975649673439166 O
0.8180779307771433 0.4115460925280199 0.5981018066916044 O
0.8275024893474604 0.9156689646435396 0.598292092481623 O
0.2324897496559173 0.2496894767213818 0.3487284171438654 O
0.2334096141853966 0.7510644407943455 0.3477604149568377 O
0.7372116700559026 0.2624414966554818 0.3438592005581851 O
0.7365832674145506 0.7617447555062388 0.3440852905406249 O
0.0199290674976545 0.2567962030468031 0.3377598057033463 O
0.0197303534623632 0.7564741611701 0.3372619844675408 O
0.519283628875664 0.2615113623215442 0.3372155443301865 O
0.5199907935872875 0.7617275548516934 0.3382754558380505 O
0.0788548474823907 0.160304580542869 0.5988692340754737 O
0.0800063170339897 0.6601612936227329 0.5959265331696365 O
0.5838948489716426 0.1662492297496775 0.5990714998416521 O
0.5836753454640041 0.6667565021460995 0.5992195672157362 O
0.9963768452645597 0.9967759357231641 0.8116560044466088 O
0.9973770727335667 0.4973287932293711 0.8088525978237386 O
0.497061434367578 0.9966645501519593 0.808586856443833 O
0.4971168521967111 0.4967098585666309 0.809428533359441 O
0.998234716982391 0.994666869891441 0.3070612077705946 O
0.9988601550663576 0.4949631669254158 0.3073007683372256 O
0.4979865257007408 0.0022910110889675 0.3074141419402666 O
0.4984357269491387 0.5018821806226917 0.3069309252786036 O
0.1687186803700011 0.3318437838948725 0.1080576234968492 O
0.1686398477757497 0.8324552649098942 0.1078685110005043 O
0.667896136951659 0.3389354363326167 0.1063996940303342 O
0.6675958888319171 0.8395270876331906 0.1078935153512559 O
0.48333151837141 0.252283121442126 0.8447414436896368 O
0.4809142595366576 0.7504322317552141 0.8466622796685931 O
0.980345789176156 0.2295718479511984 0.8466832014345481 O
0.979881144678015 0.742582684233044 0.8469309255381996 O
0.0840765418089652 0.4174138173560473 0.599428835745646 O
0.0821737464895627 0.9168892062978337 0.6017656575941918 O
0.5791955975506264 0.4187960137940923 0.5993377873128148 O
0.5798523851056789 0.9183611447457494 0.5981314175234644 O
0.2377935565070118 0.474331929962749 0.3446555334413501 O
0.2363512840316834 0.9746331136139982 0.3453569558276933 O
0.7328631315521453 0.4821370069298854 0.3486555645279535 O
0.7332338435322026 0.9816854187346523 0.3495249264663506 O
0.4199053224736897 0.0970601136539722 0.0953307283559282 O
0.4199874394478142 0.5980295211333637 0.0951436979279404 O
0.9183224538670993 0.087661653303329 0.0976555565337113 O
0.9201874358730641 0.5879045677289761 0.0956838939459575 O
