System                                  
   1.0000000000000000     
     4.4822804757505672    0.0000150671465494    0.0000120755440412
     0.0000184158198308    5.5380550973381508   -0.1266093426569298
     0.0000218641949241    2.2012297834768870    4.8540024769313117
  Li              Co              F             
     2     2     8
Direct
     0.4999956369159932    0.5000053940901077   -0.0000026900459492
    -0.0000024615376563    0.5000028842413342    0.4999987680509520
    -0.0000025000086895   -0.0000165212301986    0.0000090852243858
     0.5000043559041564   -0.0000159857258713    0.5000073162559344
     0.7613622813965891    0.1424515158453811    0.6834229922216111
     0.2613548496956615    0.8575463148734705    0.8165742594631545
     0.2386436732994262    0.8575530884490274    0.3165737775873178
     0.7386428237277444    0.1424604409268613    0.1834225285928484
     0.6905123442739505    0.6813506339943423    0.6403242975199818
     0.1905157714756373    0.3186536850574849    0.8596682667106939
     0.3094831204839699    0.3186542593955923    0.3596723629129928
     0.8094901043732176    0.6813542900824712    0.1403290355060735

  0.00000000E+00  0.00000000E+00  0.00000000E+00
  0.00000000E+00  0.00000000E+00  0.00000000E+00
  0.00000000E+00  0.00000000E+00  0.00000000E+00
  0.00000000E+00  0.00000000E+00  0.00000000E+00
  0.00000000E+00  0.00000000E+00  0.00000000E+00
  0.00000000E+00  0.00000000E+00  0.00000000E+00
  0.00000000E+00  0.00000000E+00  0.00000000E+00
  0.00000000E+00  0.00000000E+00  0.00000000E+00
  0.00000000E+00  0.00000000E+00  0.00000000E+00
  0.00000000E+00  0.00000000E+00  0.00000000E+00
  0.00000000E+00  0.00000000E+00  0.00000000E+00
  0.00000000E+00  0.00000000E+00  0.00000000E+00
