System
1.0
4.433441472287704 0.0 0.0
0.0 5.461872258216766 -0.1091117611418306
0.0 2.185758964054703 4.841274117676528
Li Co F 
2 2 8 
direct
0.5 0.5 -2.7818870014846366e-19 Li
0.0 0.5 0.49999999999999994 Li
0.0 0.0 0.0 Co
0.5 3.9150360093495636e-17 0.5 Co
0.7603441429838759 0.14544623579203314 0.6827197964303974 F
0.260344142983876 0.8545537642079668 0.8172802035696026 F
0.239655857016124 0.8545537642079669 0.317280203569603 F
0.7396558570161241 0.14544623579203314 0.1827197964303973 F
0.6966363113447822 0.6781405291017952 0.6420458011627683 F
0.19663631134478202 0.32185947089820405 0.8579541988372316 F
0.3033636886552178 0.32185947089820416 0.3579541988372316 F
0.8033636886552179 0.6781405291017951 0.1420458011627685 F
