System                                  
   1.0000000000000000     
    11.3414376695480694   -0.0647836135991604   -0.2488026780888000
    -5.6337010728795018    9.9288513910399363    0.0710431474792025
     0.0222419509143507    0.0786910209071783    9.2036924770866690
  Li              Mn              Co              Ni              O             
    16    12     8    12    64
Direct
     0.1679178279988703    0.3368136311693378    0.8959094980644705
     0.1689229639169914    0.8367620251910036    0.8959766107427255
     0.6696775468117674    0.3391168334359176    0.8915536048094592
     0.6701955844309404    0.8378364524387996    0.8937630944752256
     0.4959802412209329    0.0004715888739332    0.9948805354818915
     0.4964872670013101    0.4980078584728804    0.9923691864365177
     0.9991625275252202   -0.0002073106497712    0.9944797124642291
     0.9971448315712288    0.4991383629208260    0.9949437638460719
     0.4953419413552771    0.4921909726021667    0.4969713493970329
     0.4941304581906178    0.9963464384544460    0.4967490587854622
     0.9957895907516465    0.4950785294408850    0.4968126238096829
     0.9950959802969263    0.9957754302710812    0.4969596832688835
     0.3327452669087022    0.1646163040267356    0.3993531583992312
     0.3316313907568311    0.6645527157974145    0.4010135593441903
     0.8316046312896284    0.1645449513782188    0.3991969001187238
     0.8317276429579672    0.6647916297355068    0.3983409909467138
     0.0843303985078030    0.4152368306825138    0.2153125251354167
     0.0844886492494117    0.9135733438584539    0.2133891611882572
     0.5865753368832621    0.4158252142457406    0.2123119844040543
     0.5854272019763922    0.9163683529261888    0.2152251168961443
     0.0854006372216259    0.1710471239264768    0.2128394836571061
     0.0838694216428290    0.6687795145664016    0.2144205005113392
     0.5866481082361815    0.1717303649205063    0.2135155998030209
     0.5859819094338036    0.6702507943526933    0.2134777505366015
     0.1676969560684257    0.0828405165650381    0.7163566342760914
     0.1692934397017091    0.5822103300253006    0.7148546128050529
     0.6683862429096499    0.0836811163642311    0.7137063491338654
     0.6715813195394457    0.5834584511906501    0.7085388459825357
     0.1666874874218413    0.3295616524456685    0.4846635994703385
     0.1649461102202612    0.8267754980326223    0.4847973054738304
     0.6696336458057558    0.3316264273561210    0.4833669193060014
     0.6654092658575379    0.8286577069277425    0.4838610324570518
     0.3390853921473677    0.1709601776744695    0.9821613006311540
     0.3362206951245851    0.6704016930663684    0.9820529024932979
     0.8372197385385908    0.1709203186824557    0.9805692788026229
     0.8404506704112756    0.6733547304463242    0.9790269732287759
     0.4151116422127414    0.0846433286484182    0.7116297659226835
     0.4190598414842799    0.5877712515324909    0.7123178886998150
     0.9151501991339225    0.0841036460163731    0.7120783528841333
     0.9184404813410036    0.5866389658976348    0.7127488138360030
     0.3309472497543998    0.4187333946812800    0.2131760684989772
     0.3301440016406874    0.9132355412983374    0.2134291822578577
     0.8315649101087417    0.4157041663942162    0.2100119611721195
     0.8318280366253455    0.9179125844534535    0.2122075446861676
     0.4116094703381706    0.3304743932127829    0.7126692916257223
     0.4134888701885123    0.8295185848075087    0.7150297882410169
     0.9140585851682810    0.3288083277000207    0.7139609636658285
     0.9138915513789009    0.8298150205491673    0.7130221433650390
     0.1673376500413827    0.0834969564182817    0.1039643318415358
     0.1653021593591342    0.5833483538239299    0.1031057130922430
     0.6651170969474488    0.0840777163761115    0.1019357018908929
     0.6661035145372227    0.5844319042566061    0.1010566906256273
     0.4215441084435876    0.3336553121762288    0.0938468550232243
     0.4201515500902065    0.8375602323954588    0.0967358600792794
     0.9217660016359517    0.3360526687988557    0.0952503836651926
     0.9235257952702700    0.8362382362908576    0.0952241009020577
     0.3305800056791884    0.1643450330877290    0.6096557316229674
     0.3352485973937930    0.6695837325493178    0.6116045612033914
     0.8347397951879929    0.1681703826764452    0.6105327069660861
     0.8382818408526445    0.6715165037549031    0.6081638698552246
     0.2600980011982360    0.0213915987287827    0.8479973449780148
     0.2617661630752340    0.5230362127523209    0.8458996180178501
     0.7580893406516436    0.0225685086148511    0.8461057297914546
     0.7653527445015240    0.5248114011963474    0.8415551937731163
     0.2484538524585979    0.2308309353044968    0.8515196918547510
     0.2599368323796872    0.7415560249624642    0.8384781088143080
     0.7605667005824526    0.2425514478341325    0.8371679335118564
     0.7613122960362825    0.7429919603738815    0.8359530740005627
     0.3318773448057034    0.4118935218062911    0.5933609540874513
     0.3321265117613782    0.9091458789356439    0.5946770157906167
     0.8347411562039899    0.4100994255204183    0.5935646120001379
     0.8327148059487501    0.9108442853466930    0.5931130836656393
     0.2399552487987404    0.2609365600092056    0.3430499282033731
     0.2316454270711178    0.7495624312920023    0.3496920133249448
     0.7343117671407724    0.2521174445905852    0.3453546081250194
     0.7374272211482241    0.7579624746932192    0.3446949096221831
     0.0167977036750988    0.2567185778084647    0.3391890786464557
     0.0165819542399151    0.7577997815290141    0.3395917439780793
     0.5184439133070485    0.2599772676065445    0.3382441999834234
     0.5168473308039546    0.7577757364219759    0.3386642529930687
     0.0855017945888482    0.1616284929483875    0.5960613736835532
     0.0813382219477932    0.6597476510051830    0.5976488080393575
     0.5835199796753925    0.1627492742259999    0.5957347425617185
     0.5831065813168607    0.6606999253978285    0.5923072029602928
     0.9944351927137119    0.9955091550421622    0.8062405533719056
     0.9982585492398024    0.4954087407480241    0.8067980074434186
     0.4969209284055023    0.9974650805413221    0.8061907704342144
     0.5019327479482660    0.5020990908030442    0.8041102928606541
     0.0001275051355054   -0.0001307254093518    0.3077021557960556
    -0.0038356678878822    0.4974583066892297    0.3081426341206146
     0.4984848922408854    0.0000307853044491    0.3076600697667876
     0.5008420639391865    0.4996004379192368    0.3075249300387868
     0.1669904567718744    0.3361256240951992    0.1073264711254796
     0.1679204474186896    0.8332208332816096    0.1071891728785992
     0.6697925504569001    0.3357247196874170    0.1048313891121002
     0.6684319882798890    0.8360831623118368    0.1073549578521712
     0.4803246621282916    0.2479816933812211    0.8478826279763337
     0.4822557652084321    0.7498131011922441    0.8486478170923449
     0.9814164978905099    0.2469757779192654    0.8464443636826687
     0.9842279354937051    0.7518799448973303    0.8451547315967368
     0.0809264302237287    0.4147326512283427    0.6040061811661570
     0.0810769862829895    0.9159962438854861    0.6029740844793992
     0.5939716387564294    0.4224372860240080    0.5971065869193304
     0.5795158048749027    0.9153386497343378    0.6034579987216123
     0.2319123303993826    0.4802989957060692    0.3515012453892780
     0.2381075455539314    0.9765115157860379    0.3467156302649735
     0.7387013485364323    0.4794418040744772    0.3445433373217674
     0.7334659356945945    0.9797268224720300    0.3503095717871482
     0.4228510686355052    0.0936784369498615    0.0930983746930553
     0.4215207298286866    0.5857795679706541    0.0956161942718057
     0.9234687420630432    0.0879766921175389    0.0942332769778151
     0.9255245595502773    0.5910773920270223    0.0918893183599260

  0.00000000E+00  0.00000000E+00  0.00000000E+00
  0.00000000E+00  0.00000000E+00  0.00000000E+00
  0.00000000E+00  0.00000000E+00  0.00000000E+00
  0.00000000E+00  0.00000000E+00  0.00000000E+00
  0.00000000E+00  0.00000000E+00  0.00000000E+00
  0.00000000E+00  0.00000000E+00  0.00000000E+00
  0.00000000E+00  0.00000000E+00  0.00000000E+00
  0.00000000E+00  0.00000000E+00  0.00000000E+00
  0.00000000E+00  0.00000000E+00  0.00000000E+00
  0.00000000E+00  0.00000000E+00  0.00000000E+00
  0.00000000E+00  0.00000000E+00  0.00000000E+00
  0.00000000E+00  0.00000000E+00  0.00000000E+00
  0.00000000E+00  0.00000000E+00  0.00000000E+00
  0.00000000E+00  0.00000000E+00  0.00000000E+00
  0.00000000E+00  0.00000000E+00  0.00000000E+00
  0.00000000E+00  0.00000000E+00  0.00000000E+00
  0.00000000E+00  0.00000000E+00  0.00000000E+00
  0.00000000E+00  0.00000000E+00  0.00000000E+00
  0.00000000E+00  0.00000000E+00  0.00000000E+00
  0.00000000E+00  0.00000000E+00  0.00000000E+00
  0.00000000E+00  0.00000000E+00  0.00000000E+00
  0.00000000E+00  0.00000000E+00  0.00000000E+00
  0.00000000E+00  0.00000000E+00  0.00000000E+00
  0.00000000E+00  0.00000000E+00  0.00000000E+00
  0.00000000E+00  0.00000000E+00  0.00000000E+00
  0.00000000E+00  0.00000000E+00  0.00000000E+00
  0.00000000E+00  0.00000000E+00  0.00000000E+00
  0.00000000E+00  0.00000000E+00  0.00000000E+00
  0.00000000E+00  0.00000000E+00  0.00000000E+00
  0.00000000E+00  0.00000000E+00  0.00000000E+00
  0.00000000E+00  0.00000000E+00  0.00000000E+00
  0.00000000E+00  0.00000000E+00  0.00000000E+00
  0.00000000E+00  0.00000000E+00  0.00000000E+00
  0.00000000E+00  0.00000000E+00  0.00000000E+00
  0.00000000E+00  0.00000000E+00  0.00000000E+00
  0.00000000E+00  0.00000000E+00  0.00000000E+00
  0.00000000E+00  0.00000000E+00  0.00000000E+00
  0.00000000E+00  0.00000000E+00  0.00000000E+00
  0.00000000E+00  0.00000000E+00  0.00000000E+00
  0.00000000E+00  0.00000000E+00  0.00000000E+00
  0.00000000E+00  0.00000000E+00  0.00000000E+00
  0.00000000E+00  0.00000000E+00  0.00000000E+00
  0.00000000E+00  0.00000000E+00  0.00000000E+00
  0.00000000E+00  0.00000000E+00  0.00000000E+00
  0.00000000E+00  0.00000000E+00  0.00000000E+00
  0.00000000E+00  0.00000000E+00  0.00000000E+00
  0.00000000E+00  0.00000000E+00  0.00000000E+00
  0.00000000E+00  0.00000000E+00  0.00000000E+00
  0.00000000E+00  0.00000000E+00  0.00000000E+00
  0.00000000E+00  0.00000000E+00  0.00000000E+00
  0.00000000E+00  0.00000000E+00  0.00000000E+00
  0.00000000E+00  0.00000000E+00  0.00000000E+00
  0.00000000E+00  0.00000000E+00  0.00000000E+00
  0.00000000E+00  0.00000000E+00  0.00000000E+00
  0.00000000E+00  0.00000000E+00  0.00000000E+00
  0.00000000E+00  0.00000000E+00  0.00000000E+00
  0.00000000E+00  0.00000000E+00  0.00000000E+00
  0.00000000E+00  0.00000000E+00  0.00000000E+00
  0.00000000E+00  0.00000000E+00  0.00000000E+00
  0.00000000E+00  0.00000000E+00  0.00000000E+00
  0.00000000E+00  0.00000000E+00  0.00000000E+00
  0.00000000E+00  0.00000000E+00  0.00000000E+00
  0.00000000E+00  0.00000000E+00  0.00000000E+00
  0.00000000E+00  0.00000000E+00  0.00000000E+00
  0.00000000E+00  0.00000000E+00  0.00000000E+00
  0.00000000E+00  0.00000000E+00  0.00000000E+00
  0.00000000E+00  0.00000000E+00  0.00000000E+00
  0.00000000E+00  0.00000000E+00  0.00000000E+00
  0.00000000E+00  0.00000000E+00  0.00000000E+00
  0.00000000E+00  0.00000000E+00  0.00000000E+00
  0.00000000E+00  0.00000000E+00  0.00000000E+00
  0.00000000E+00  0.00000000E+00  0.00000000E+00
  0.00000000E+00  0.00000000E+00  0.00000000E+00
  0.00000000E+00  0.00000000E+00  0.00000000E+00
  0.00000000E+00  0.00000000E+00  0.00000000E+00
  0.00000000E+00  0.00000000E+00  0.00000000E+00
  0.00000000E+00  0.00000000E+00  0.00000000E+00
  0.00000000E+00  0.00000000E+00  0.00000000E+00
  0.00000000E+00  0.00000000E+00  0.00000000E+00
  0.00000000E+00  0.00000000E+00  0.00000000E+00
  0.00000000E+00  0.00000000E+00  0.00000000E+00
  0.00000000E+00  0.00000000E+00  0.00000000E+00
  0.00000000E+00  0.00000000E+00  0.00000000E+00
  0.00000000E+00  0.00000000E+00  0.00000000E+00
  0.00000000E+00  0.00000000E+00  0.00000000E+00
  0.00000000E+00  0.00000000E+00  0.00000000E+00
  0.00000000E+00  0.00000000E+00  0.00000000E+00
  0.00000000E+00  0.00000000E+00  0.00000000E+00
  0.00000000E+00  0.00000000E+00  0.00000000E+00
  0.00000000E+00  0.00000000E+00  0.00000000E+00
  0.00000000E+00  0.00000000E+00  0.00000000E+00
  0.00000000E+00  0.00000000E+00  0.00000000E+00
  0.00000000E+00  0.00000000E+00  0.00000000E+00
  0.00000000E+00  0.00000000E+00  0.00000000E+00
  0.00000000E+00  0.00000000E+00  0.00000000E+00
  0.00000000E+00  0.00000000E+00  0.00000000E+00
  0.00000000E+00  0.00000000E+00  0.00000000E+00
  0.00000000E+00  0.00000000E+00  0.00000000E+00
  0.00000000E+00  0.00000000E+00  0.00000000E+00
  0.00000000E+00  0.00000000E+00  0.00000000E+00
  0.00000000E+00  0.00000000E+00  0.00000000E+00
  0.00000000E+00  0.00000000E+00  0.00000000E+00
  0.00000000E+00  0.00000000E+00  0.00000000E+00
  0.00000000E+00  0.00000000E+00  0.00000000E+00
  0.00000000E+00  0.00000000E+00  0.00000000E+00
  0.00000000E+00  0.00000000E+00  0.00000000E+00
  0.00000000E+00  0.00000000E+00  0.00000000E+00
  0.00000000E+00  0.00000000E+00  0.00000000E+00
  0.00000000E+00  0.00000000E+00  0.00000000E+00
  0.00000000E+00  0.00000000E+00  0.00000000E+00
  0.00000000E+00  0.00000000E+00  0.00000000E+00
  0.00000000E+00  0.00000000E+00  0.00000000E+00
