System
1.0
11.29416 -0.04288 -0.18165
-5.59309 9.84045 -0.00741
0.07389 0.03548 9.14311
Li Mn Co Ni O 
16 12 8 12 64 
direct
0.16876862082086735 0.33479580962390376 0.8939000451562003 Li
0.16876862082086735 0.8347958096239038 0.8939000451562003 Li
0.6687686208208673 0.3347958096239038 0.8939000451562001 Li
0.6687686208208673 0.8347958096239039 0.8939000451562001 Li
0.4984475254361896 0.0002748735544853058 0.9966739136075349 Li
0.49844752543618953 0.5002748735544853 0.9966739136075349 Li
0.9984475254361893 0.00027487355448530573 0.9966739136075349 Li
0.9984475254361895 0.5002748735544853 0.9966739136075349 Li
0.49661715294632963 0.4982805085433077 0.49560865726500536 Li
0.4966171529463296 0.9982805085433076 0.49560865726500536 Li
0.9966171529463296 0.49828050854330763 0.49560865726500536 Li
0.9966171529463297 0.9982805085433076 0.49560865726500536 Li
0.3330458017372525 0.16618367292136005 0.397600580692393 Li
0.33304580173725257 0.66618367292136 0.397600580692393 Li
0.8330458017372525 0.16618367292136002 0.397600580692393 Li
0.8330458017372525 0.66618367292136 0.39760058069239307 Li
0.08392634759353687 0.41215559923726086 0.21344212560495368 Mn
0.08392634759353688 0.9121555992372609 0.21344212560495368 Mn
0.5839263475935369 0.41215559923726086 0.2134421256049537 Mn
0.5839263475935369 0.9121555992372609 0.21344212560495368 Mn
0.0844775278869655 0.1707591945369903 0.20963226187701908 Mn
0.0844775278869655 0.6707591945369903 0.20963226187701908 Mn
0.5844775278869654 0.17075919453699032 0.20963226187701908 Mn
0.5844775278869655 0.6707591945369903 0.20963226187701908 Mn
0.1695433608355143 0.08461409694827204 0.7136685176645716 Mn
0.16954336083551433 0.584614096948272 0.7136685176645716 Mn
0.6695433608355142 0.08461409694827203 0.7136685176645717 Mn
0.6695433608355142 0.584614096948272 0.7136685176645717 Mn
0.16641828728066047 0.33267585895899254 0.4876781246803924 Co
0.16641828728066047 0.8326758589589924 0.48767812468039234 Co
0.6664182872806604 0.33267585895899254 0.4876781246803924 Co
0.6664182872806604 0.8326758589589924 0.4876781246803924 Co
0.33483173928687343 0.16755086686461101 0.9845643963383528 Co
0.33483173928687343 0.6675508668646111 0.9845643963383528 Co
0.8348317392868733 0.16755086686461104 0.9845643963383527 Co
0.8348317392868734 0.667550866864611 0.9845643963383527 Co
0.41472573801199786 0.08473245348656021 0.7127958213920765 Ni
0.41472573801199786 0.5847324534865602 0.7127958213920765 Ni
0.914725738011998 0.08473245348656021 0.7127958213920765 Ni
0.9147257380119979 0.5847324534865602 0.7127958213920765 Ni
0.33019585534295687 0.41434434362877776 0.21230186085754119 Ni
0.33019585534295687 0.9143443436287778 0.21230186085754119 Ni
0.8301958553429569 0.4143443436287777 0.21230186085754119 Ni
0.8301958553429569 0.9143443436287777 0.21230186085754119 Ni
0.4146157980988875 0.32966710811511474 0.712884759708149 Ni
0.4146157980988875 0.8296671081151148 0.712884759708149 Ni
0.9146157980988875 0.32966710811511474 0.712884759708149 Ni
0.9146157980988874 0.8296671081151147 0.712884759708149 Ni
0.16784596072492708 0.0849196848757822 0.10471093765156367 O
0.1678459607249271 0.5849196848757823 0.10471093765156368 O
0.6678459607249271 0.0849196848757822 0.10471093765156367 O
0.6678459607249271 0.5849196848757823 0.10471093765156367 O
0.4207190776338062 0.33495988408491495 0.09656486379186428 O
0.4207190776338062 0.834959884084915 0.09656486379186428 O
0.9207190776338062 0.334959884084915 0.09656486379186428 O
0.9207190776338062 0.834959884084915 0.09656486379186428 O
0.33263259240075704 0.1662453122897673 0.6083446584971333 O
0.33263259240075704 0.6662453122897672 0.6083446584971333 O
0.832632592400757 0.1662453122897673 0.6083446584971333 O
0.832632592400757 0.6662453122897674 0.6083446584971333 O
0.2594490380629352 0.020679595618155345 0.8433787869499986 O
0.2594490380629352 0.5206795956181552 0.8433787869499986 O
0.7594490380629353 0.02067959561815534 0.8433787869499986 O
0.7594490380629351 0.5206795956181554 0.8433787869499986 O
0.25843619568986664 0.2381752125915587 0.8428372569964089 O
0.25843619568986664 0.7381752125915586 0.8428372569964089 O
0.7584361956898666 0.23817521259155866 0.842837256996409 O
0.7584361956898666 0.7381752125915586 0.842837256996409 O
0.33320075365228163 0.41589093663753346 0.592861606828076 O
0.3332007536522816 0.9158909366375334 0.5928616068280759 O
0.8332007536522816 0.4158909366375334 0.592861606828076 O
0.8332007536522816 0.9158909366375335 0.592861606828076 O
0.23406415706200603 0.25582598134492773 0.343297797892692 O
0.23406415706200603 0.7558259813449277 0.34329779789269194 O
0.7340641570620061 0.2558259813449277 0.34329779789269194 O
0.734064157062006 0.7558259813449277 0.34329779789269194 O
0.019142427717518062 0.25992755735533574 0.34229460166035325 O
0.01914242771751809 0.7599275573553358 0.34229460166035325 O
0.5191424277175181 0.2599275573553357 0.34229460166035325 O
0.5191424277175182 0.7599275573553358 0.3422946016603533 O
0.0847274647619395 0.1650053847912219 0.5982370179983635 O
0.0847274647619395 0.665005384791222 0.5982370179983635 O
0.5847274647619395 0.16500538479122193 0.5982370179983636 O
0.5847274647619395 0.665005384791222 0.5982370179983635 O
-0.001179848491787791 -0.0008122139086769673 0.8068641200411728 O
-0.0011798484917877672 0.4991877860913231 0.8068641200411728 O
0.4988201515082122 -0.0008122139086769673 0.8068641200411728 O
0.49882015150821224 0.499187786091323 0.8068641200411728 O
0.0006943351925405235 0.00019358138373622575 0.306135216594334 O
0.0006943351925405381 0.5001935813837363 0.306135216594334 O
0.5006943351925406 0.00019358138373622594 0.306135216594334 O
0.5006943351925405 0.5001935813837363 0.306135216594334 O
0.16769307239941592 0.3340970302448738 0.10339249860180656 O
0.16769307239941592 0.8340970302448737 0.10339249860180656 O
0.6676930723994158 0.33409703024487375 0.10339249860180656 O
0.667693072399416 0.8340970302448738 0.10339249860180656 O
0.48068114615642904 0.24036726086577184 0.8465739860052978 O
0.48068114615642904 0.7403672608657718 0.8465739860052978 O
0.9806811461564292 0.24036726086577184 0.8465739860052978 O
0.980681146156429 0.7403672608657718 0.8465739860052978 O
0.08543686604400508 0.4195449793157451 0.5981851575246465 O
0.0854368660440051 0.9195449793157451 0.5981851575246465 O
0.5854368660440051 0.419544979315745 0.5981851575246465 O
0.585436866044005 0.9195449793157451 0.5981851575246465 O
0.2381977231677465 0.47850752617418396 0.34375034054331466 O
0.2381977231677466 0.978507526174184 0.34375034054331466 O
0.7381977231677465 0.4785075261741839 0.34375034054331466 O
0.7381977231677466 0.9785075261741839 0.3437503405433147 O
0.4226362334967955 0.09058075363967331 0.09965944910742335 O
0.4226362334967956 0.5905807536396733 0.09965944910742335 O
0.9226362334967956 0.0905807536396733 0.09965944910742333 O
0.9226362334967956 0.5905807536396733 0.09965944910742335 O
