System
1.0
10.362654199567075 0.6680397148495248 5.890074447848777
3.510047580411978 10.073208645045039 5.577995800114263
-0.2770176937874708 0.4281704396772118 11.509736570530237
Li Mn O 
4 32 64 
direct
0.4286218360545316 0.4292026283202117 0.9485533947748137 Li
0.4382134451875478 0.930187815290943 0.4454298464509974 Li
0.9352030742673418 0.4359858898103702 0.9353068167391873 Li
0.9386605948454347 0.937494491222756 0.9374866709428681 Li
0.2460574932672585 0.2427937652382207 0.0044475798729408 Mn
0.2398723621321914 0.2385675592065662 0.5080552825846635 Mn
0.2512211397830314 0.746210782717373 0.0035546949737913 Mn
0.255230008412395 0.7518039665060872 0.4996346720699443 Mn
0.7457751561463325 0.2510792423448263 0.0012339480846647 Mn
0.7451701551349762 0.2527785670630925 0.4997097917478878 Mn
0.7536037707157538 0.7531183581758837 0.995762805453871 Mn
0.7594349982645089 0.758701203064586 0.4963180268435304 Mn
0.2488612373227774 0.9976678656763796 0.2511335124279074 Mn
0.2439775868420579 0.9943219051770017 0.7577317947591649 Mn
0.2458431912483282 0.4957522471501831 0.2584768293266133 Mn
0.2501583295916323 0.4976162085781081 0.7480668308189067 Mn
0.7531001072412346 0.0053852511567995 0.2465950485293225 Mn
0.7523762179560686 0.0020474347604985 0.7462157836450277 Mn
0.7507536906777464 0.5042023239681502 0.2467595738463263 Mn
0.7515476270218437 0.5071346061901436 0.7450868709527404 Mn
0.9987768959118767 0.2472605432078822 0.2518157631404916 Mn
0.9955360800360338 0.2438817282873093 0.7538457582799298 Mn
0.0064165530297206 0.7518111483537713 0.2487936435924004 Mn
0.0073482621723514 0.7524014040789719 0.744217009879746 Mn
0.4949237536614925 0.2468424642731694 0.2560890552411566 Mn
0.4949662067108645 0.2445322193261505 0.7521683944386685 Mn
0.5026118360326429 0.7532034712633077 0.2457630818177301 Mn
0.5053339085676852 0.7552263982381444 0.7487775768410567 Mn
0.2427184049058881 0.240892919476773 0.2599943954027523 Mn
0.2444577709985903 0.2404588688842478 0.7571069562092786 Mn
0.2536042578645122 0.7517163147862521 0.2465480589587111 Mn
0.2517554791956652 0.7461166768284441 0.752505026764197 Mn
0.750028457519575 0.2550995832766932 0.2433412469227945 Mn
0.7415285162256058 0.2497041609360252 0.7538036355251371 Mn
0.7538565980577387 0.7526254999765214 0.2472749209703772 Mn
0.7595742922127826 0.7588091615419538 0.7363127152098763 Mn
0.1316283573722464 0.129487308045617 0.3544745267384207 O
0.1303363898206395 0.12871058736847 0.856810836737678 O
0.1395020777192792 0.6429294772789896 0.3499050533197282 O
0.1396556325681682 0.6375142229205805 0.8473146294984958 O
0.644575240904974 0.1384038960843757 0.3460534343765414 O
0.6360990901453151 0.1330389999146376 0.8503386197819504 O
0.6425973656414941 0.6382244988849746 0.3464454956206884 O
0.6506317534017316 0.6468285315406109 0.8401396448517581 O
0.1240055485595974 0.3441841598300887 0.138122577648014 O
0.1191707755679073 0.3415313185382297 0.6424657562418697 O
0.1278342183352467 0.8517001406307575 0.1346174466428808 O
0.1294287529199635 0.8517298470232816 0.6339744958119778 O
0.6417668538305404 0.3576167249763489 0.1211294019068847 O
0.6185509208522716 0.3489889008790362 0.6388802379984049 O
0.6317413361404497 0.8516406899135592 0.1314904265935517 O
0.6499742133137886 0.8656741637563216 0.6160268071155462 O
0.3462383703078588 0.1234944336968601 0.1421631555771949 O
0.3428351989775463 0.1178695036705076 0.6454457515695111 O
0.3556692599595452 0.6406800769778442 0.1291823701115604 O
0.357836434355168 0.6425389473408182 0.6285521308146849 O
0.851945282139122 0.1292429798850679 0.1350478604315817 O
0.8457142729043764 0.1321494443600742 0.6360751779578377 O
0.8522091177957071 0.6289080139625438 0.1366409367129674 O
0.8661339612926893 0.6483546927575834 0.6190728968765606 O
0.1314809388693121 0.1336885437098332 0.1307808572413125 O
0.1251517254462241 0.1290892987002026 0.6372341203835361 O
0.134509779355491 0.6389122982984329 0.1306675371698859 O
0.1391777931568495 0.6442380105446512 0.6204467339831128 O
0.6387075509201146 0.1385300422759941 0.1250852214204638 O
0.6350230427583342 0.1383957317194867 0.6238886542536843 O
0.6389935898784562 0.6424251305818698 0.121372254117392 O
0.6456475105025824 0.6503985588732921 0.615957824161134 O
0.3538747797631193 0.3545281425506722 0.1575504779581208 O
0.3561746407841416 0.3526977133880475 0.6561048483959541 O
0.3648958280141658 0.8677272270790828 0.1479232920911094 O
0.3595050867036302 0.8651978003586941 0.6522474215779187 O
0.8653566424968799 0.3699714502139465 0.1439558463026024 O
0.8579134526201243 0.3607084860104199 0.650359425114627 O
0.8657223013034113 0.8674834196554496 0.1446165593941536 O
0.8698769734480065 0.8723247797405458 0.6450868367677813 O
0.3520899463487153 0.1309402779470589 0.3843221988549114 O
0.3707066844952907 0.1436384021520642 0.8690700858338793 O
0.3793144192735942 0.6540314586997177 0.361392870500642 O
0.3597740456005517 0.6378826454862982 0.8789340225382577 O
0.8698249216494492 0.1552054212860595 0.3644489609506845 O
0.8683383771763316 0.1443715552977708 0.8675034789732953 O
0.8781506465788691 0.6497307429076904 0.362374933029553 O
0.8807080748497368 0.6502020758732538 0.8621638543778004 O
0.1325977257073134 0.3518365122376663 0.3805596659117588 O
0.1382367344861823 0.35204148464077 0.8778974683215144 O
0.1542084828962271 0.873399766882918 0.3611687898271685 O
0.1432094884670704 0.8701740741307296 0.8674592602955402 O
0.6513743819315787 0.3793813259962385 0.3553223143287329 O
0.637130461711482 0.3595123393570167 0.8748785031787831 O
0.6509891248683938 0.8784588486976838 0.357676537340574 O
0.6566625946513386 0.876472547883342 0.8576030253173432 O
0.351385345012429 0.3481851569388547 0.3886167650732136 O
0.3620473020946476 0.3549696125471289 0.8783234930935145 O
0.3704094636744039 0.8656533858761686 0.370223396637414 O
0.3572513301270421 0.8613575773900441 0.8784820255780028 O
0.8638583667282064 0.3657817800742678 0.373204997257244 O
0.8652619717386907 0.3595200185454976 0.8734283803521791 O
0.871164616482049 0.868959297703842 0.3639805654068857 O
0.8689611561827731 0.8660279314964648 0.8713977961478999 O
