System                                  
   1.0000000000000000     
     0.0000825818889399    3.0821792979851521    3.0821810066482871
     3.0821808499211638    0.0000817969398562    3.0821817704689503
     3.0821806776087519    3.0821798476401723    0.0000819605296826
  Li              Mn              Rh            
     2     1     1
Direct
    -0.0000013258163794   -0.0000009064582675   -0.0000011526499150
     0.2500003451311543    0.2499999123553729    0.2500002145261253
     0.5000002110231213    0.5000001986096168    0.5000002034510995
     0.7500007696621036    0.7500007954932780    0.7500007346726901

  0.00000000E+00  0.00000000E+00  0.00000000E+00
  0.00000000E+00  0.00000000E+00  0.00000000E+00
  0.00000000E+00  0.00000000E+00  0.00000000E+00
  0.00000000E+00  0.00000000E+00  0.00000000E+00
