System                                  
   1.0000000000000000     
     5.8550486334586331    3.3384942314718198    0.0994329237913833
    -5.8550498745678938    3.3384981774582068    0.0994308845653330
     0.0000003572471426    0.5815393997640212    6.6232276946605397
  Sr              Li              Fe              N             
     4     2     4     6
Direct
     0.3015430506014344    0.1794240217197432    0.5992664476723454
     0.8205764033006894    0.6984566137565079    0.9007337367978642
     0.6984563997541814    0.8205761475698023    0.4007331970828126
     0.1794239248172890    0.3015432109898424    0.0992663487226230
     0.8186241219323649    0.1813747126076634    0.7499985204146192
     0.1813780027559564    0.8186269644049390    0.2500034799843537
     0.4210980992017317    0.8247056786346914    0.8891695191213108
     0.1752935587621486    0.5789019048799072    0.6108302373710326
     0.5789010828044402    0.1752931586061527    0.1108297441637995
     0.8247064739123342    0.4210991359286002    0.3891694713031351
     0.2730267504728017   -0.0040448279120573    0.9826913883686011
     1.0040436908594979    0.7269731090686924    0.5173096413021329
     0.7269725365560182    1.0040433828379443    0.0173085669271703
    -0.0040436581761428    0.2730278735596987    0.4826904520988561
     0.4189260097016844    0.5810732822830865    0.7499992570569014
     0.5810735527435692    0.4189256310647852    0.2499999916124497

  0.00000000E+00  0.00000000E+00  0.00000000E+00
  0.00000000E+00  0.00000000E+00  0.00000000E+00
  0.00000000E+00  0.00000000E+00  0.00000000E+00
  0.00000000E+00  0.00000000E+00  0.00000000E+00
  0.00000000E+00  0.00000000E+00  0.00000000E+00
  0.00000000E+00  0.00000000E+00  0.00000000E+00
  0.00000000E+00  0.00000000E+00  0.00000000E+00
  0.00000000E+00  0.00000000E+00  0.00000000E+00
  0.00000000E+00  0.00000000E+00  0.00000000E+00
  0.00000000E+00  0.00000000E+00  0.00000000E+00
  0.00000000E+00  0.00000000E+00  0.00000000E+00
  0.00000000E+00  0.00000000E+00  0.00000000E+00
  0.00000000E+00  0.00000000E+00  0.00000000E+00
  0.00000000E+00  0.00000000E+00  0.00000000E+00
  0.00000000E+00  0.00000000E+00  0.00000000E+00
  0.00000000E+00  0.00000000E+00  0.00000000E+00
