System
1.0
5.761477390785495 3.372903899184625 -0.0450730067814475
-5.761477390785495 3.372903899184625 -0.0450730067814475
0.0 0.2993925325452779 6.779528785328923
Sr Li Fe N 
4 2 4 6 
direct
0.3166019339119432 0.18104899851217804 0.6017514892779044 Sr
0.8189510014878221 0.6833980660880571 0.8982485107220957 Sr
0.6833980660880571 0.8189510014878221 0.39824851072209577 Sr
0.181048998512178 0.3166019339119432 0.10175148927790441 Sr
0.8098432369785844 0.19015676302141524 0.75 Li
0.19015676302141526 0.8098432369785845 0.25 Li
0.42984519940660953 0.8381219443331974 0.8980334337688697 Fe
0.1618780556668024 0.5701548005933909 0.6019665662311305 Fe
0.5701548005933907 0.1618780556668024 0.10196656623113082 Fe
0.8381219443331973 0.4298451994066095 0.3980334337688689 Fe
0.2852992179602852 0.0003696490394211694 0.9869572869198773 N
-0.00036964903942127 0.7147007820397151 0.5130427130801228 N
0.7147007820397151 -0.00036964903942130243 0.013042713080122602 N
0.00036964903942123044 0.28529921796028523 0.48695728691987755 N
0.4042704153377136 0.5957295846622863 0.75 N
0.5957295846622863 0.40427041533771363 0.25000000000000006 N
