System                                  
   1.0000000000000000     
    11.4009387477082118   -0.1270461853059910   -0.2333408100202317
    -5.7172201767325017    9.9979219821615430    0.0770862630575056
     0.0362140596339119    0.0921245990614989    9.2636120848112711
  Li              Mn              Co              Ni              O             
     6    12     8    12    64
Direct
     0.6738449632214180    0.3365560899214887    0.8983284864648147
     0.6736120792605348    0.8368265920220445    0.8983816418985436
     0.3323027944034905    0.1612092265101040    0.4023876170432027
     0.3321963181485721    0.6612622124760427    0.4025612477648952
     0.8325946830680933    0.1691441693204310    0.4016156154330339
     0.8324803237325337    0.6690531137413830    0.4022468860540656
     0.0852243013193853    0.4126467079579220    0.2095850994169817
     0.0851740371788032    0.9126982415225745    0.2098793373518437
     0.5835799291239032    0.4204950874276215    0.2115664668840989
     0.5836614475469547    0.9205771059510960    0.2116680921574655
     0.0856961661745362    0.1647095660329564    0.2117764319302968
     0.0855397252414604    0.6646460463542088    0.2120130868654975
     0.5839065703054037    0.1718618110362505    0.2088127475220063
     0.5840244502718549    0.6719436650370050    0.2090484530452904
     0.1671227565688951    0.0818846788256287    0.7133641659876707
     0.1669796838951000    0.5819254477624454    0.7134642388531878
     0.6654934084906263    0.0831998358877844    0.7097100818444855
     0.6653924286691034    0.5832445865202728    0.7101054236117229
     0.1680069135760497    0.3277435920450257    0.4870359546954542
     0.1680169062544422    0.8277798851411960    0.4872043705977003
     0.6679353352093117    0.3385295764526469    0.4857438578287048
     0.6680134989588042    0.8385998096911245    0.4860536911581136
     0.3405506526781610    0.1732386145314476    0.9797187342649277
     0.3404752224276433    0.6733957341408606    0.9798434859387402
     0.8414101240399702    0.1683429127055167    0.9816035614652959
     0.8409608744949902    0.6683466154204104    0.9821111437419752
     0.4174972321197184    0.0859547985259907    0.7117435743639636
     0.4173578353145627    0.5859676526912269    0.7118484703872885
     0.9157349041682250    0.0839040692496699    0.7122341931755607
     0.9155873346991309    0.5838196491859222    0.7124457271778961
     0.3326568481282064    0.4157280731043881    0.2079597405946976
     0.3325359266602089    0.9157584061206936    0.2078298022576372
     0.8326058520221251    0.4187666902311024    0.2092578966898537
     0.8326887538276661    0.9188593885594654    0.2092839186960982
     0.4139025434578268    0.3313579196131560    0.7117885911705933
     0.4138106547812375    0.8313308650527044    0.7119369120243576
     0.9186006623885096    0.3323257567118262    0.7106541600565611
     0.9185132950771896    0.8324561949148496    0.7112556422068419
     0.1720564474031799    0.0839789358046457    0.1067444928288143
     0.1721189280786321    0.5841261339284745    0.1068288249039139
     0.6729198217017492    0.0901871233774651    0.1056755643584283
     0.6731319530912779    0.5904067179962120    0.1057479914098143
     0.4198861078035905    0.3365941684115342    0.0958073768852156
     0.4195393898853727    0.8359733933445785    0.0962318380616583
     0.9180386380047995    0.3227006169717014    0.0955160466574369
     0.9177350441053798    0.8226290655913820    0.0960777622778443
     0.3347218184853941    0.1695441966399561    0.6104814388873938
     0.3346093679578327    0.6696264733998355    0.6106599891984980
     0.8356309123203806    0.1677673000510049    0.6096811833828252
     0.8355145462890131    0.6679985947820750    0.6102314646063342
     0.2640151054888821    0.0267088104852805    0.8441986890291731
     0.2640158880482582    0.5269293945258779    0.8444839392191720
     0.7612049195511257    0.0217990814489684    0.8401840539543008
     0.7607800635361853    0.5217390033452682    0.8406924644810223
     0.2625121303929083    0.2392955853285015    0.8389383101087277
     0.2623375968714034    0.7395238870522256    0.8389056019674663
     0.7626879265106162    0.2378181206778587    0.8406551713382476
     0.7623225892905466    0.7378709069353923    0.8411705727522859
     0.3202552657796946    0.4051791924026739    0.5985268167751973
     0.3203785223954712    0.9051880198690814    0.5986497842926617
     0.8196574722364409    0.4138599896124490    0.5981498272259292
     0.8202423406704271    0.9142205756150084    0.5983895208774360
     0.2332488297182809    0.2501590807883706    0.3490057610964921
     0.2331980844048722    0.7502665471881634    0.3490667557491809
     0.7374821073777343    0.2636758425663724    0.3435341490878800
     0.7375627270696181    0.7637568699634130    0.3438662674144173
     0.0195884615291877    0.2560943940991120    0.3375452728507681
     0.0195135537679190    0.7561079851499286    0.3378746379333823
     0.5192469826521411    0.2618012572450809    0.3371490416113750
     0.5193760200150465    0.7618239615215814    0.3374368980452521
     0.0790593891256922    0.1599220718315970    0.5968055697762744
     0.0790744913116438    0.6599641580374009    0.5969142564078898
     0.5840511875438062    0.1671642757097543    0.5988871639281393
     0.5841593627682607    0.6674588027755879    0.5992828058872643
     0.9973098522722637    0.9980387917303589    0.8096478568925245
     0.9971181099772315    0.4977111896450870    0.8094859660432751
     0.4972730170243835    0.9967905756760661    0.8082292850975411
     0.4970543746296689    0.4967387611387552    0.8082942612615505
     0.9988596501970447    0.9943788422630244    0.3083559849461248
     0.9988393706969383    0.4942006662492273    0.3083094428453850
     0.4984191224032120    0.0025481542648640    0.3075113732711533
     0.4985782685417149    0.5026045045544265    0.3076300816576794
     0.1687918900635642    0.3314984236509382    0.1085600146805785
     0.1685548256804374    0.8314590016572639    0.1086548662280251
     0.6672280730509560    0.3391731359479781    0.1062762552947552
     0.6672958299110469    0.8392519089375631    0.1064124969929099
     0.4835060789229086    0.2520708945312222    0.8450838419751168
     0.4833756475633122    0.7520828369942720    0.8450331951033324
     0.9803242114758518    0.2336480177938801    0.8494578158868283
     0.9797395394296916    0.7339474765517391    0.8505056233976519
     0.0839820368010277    0.4172205867128816    0.5999717250394615
     0.0838177661297520    0.9170757082593011    0.6002263628633574
     0.5791796624365254    0.4191210566841934    0.5984268806479421
     0.5790959130292622    0.9188792598412855    0.5985525772772403
     0.2374126354102257    0.4737692802932975    0.3450505532168907
     0.2372572018022363    0.9738276135746644    0.3451979093563473
     0.7321513373405726    0.4825829118136450    0.3486565976153763
     0.7321801197314736    0.9826011561871614    0.3487112105041660
     0.4196819878720873    0.0972744780008617    0.0956108481806147
     0.4198064412088713    0.5972844297041361    0.0958213880589172
     0.9203307557942892    0.0854003743514928    0.0961897047371694
     0.9201241066335827    0.5852941494754248    0.0965958623336435

  0.00000000E+00  0.00000000E+00  0.00000000E+00
  0.00000000E+00  0.00000000E+00  0.00000000E+00
  0.00000000E+00  0.00000000E+00  0.00000000E+00
  0.00000000E+00  0.00000000E+00  0.00000000E+00
  0.00000000E+00  0.00000000E+00  0.00000000E+00
  0.00000000E+00  0.00000000E+00  0.00000000E+00
  0.00000000E+00  0.00000000E+00  0.00000000E+00
  0.00000000E+00  0.00000000E+00  0.00000000E+00
  0.00000000E+00  0.00000000E+00  0.00000000E+00
  0.00000000E+00  0.00000000E+00  0.00000000E+00
  0.00000000E+00  0.00000000E+00  0.00000000E+00
  0.00000000E+00  0.00000000E+00  0.00000000E+00
  0.00000000E+00  0.00000000E+00  0.00000000E+00
  0.00000000E+00  0.00000000E+00  0.00000000E+00
  0.00000000E+00  0.00000000E+00  0.00000000E+00
  0.00000000E+00  0.00000000E+00  0.00000000E+00
  0.00000000E+00  0.00000000E+00  0.00000000E+00
  0.00000000E+00  0.00000000E+00  0.00000000E+00
  0.00000000E+00  0.00000000E+00  0.00000000E+00
  0.00000000E+00  0.00000000E+00  0.00000000E+00
  0.00000000E+00  0.00000000E+00  0.00000000E+00
  0.00000000E+00  0.00000000E+00  0.00000000E+00
  0.00000000E+00  0.00000000E+00  0.00000000E+00
  0.00000000E+00  0.00000000E+00  0.00000000E+00
  0.00000000E+00  0.00000000E+00  0.00000000E+00
  0.00000000E+00  0.00000000E+00  0.00000000E+00
  0.00000000E+00  0.00000000E+00  0.00000000E+00
  0.00000000E+00  0.00000000E+00  0.00000000E+00
  0.00000000E+00  0.00000000E+00  0.00000000E+00
  0.00000000E+00  0.00000000E+00  0.00000000E+00
  0.00000000E+00  0.00000000E+00  0.00000000E+00
  0.00000000E+00  0.00000000E+00  0.00000000E+00
  0.00000000E+00  0.00000000E+00  0.00000000E+00
  0.00000000E+00  0.00000000E+00  0.00000000E+00
  0.00000000E+00  0.00000000E+00  0.00000000E+00
  0.00000000E+00  0.00000000E+00  0.00000000E+00
  0.00000000E+00  0.00000000E+00  0.00000000E+00
  0.00000000E+00  0.00000000E+00  0.00000000E+00
  0.00000000E+00  0.00000000E+00  0.00000000E+00
  0.00000000E+00  0.00000000E+00  0.00000000E+00
  0.00000000E+00  0.00000000E+00  0.00000000E+00
  0.00000000E+00  0.00000000E+00  0.00000000E+00
  0.00000000E+00  0.00000000E+00  0.00000000E+00
  0.00000000E+00  0.00000000E+00  0.00000000E+00
  0.00000000E+00  0.00000000E+00  0.00000000E+00
  0.00000000E+00  0.00000000E+00  0.00000000E+00
  0.00000000E+00  0.00000000E+00  0.00000000E+00
  0.00000000E+00  0.00000000E+00  0.00000000E+00
  0.00000000E+00  0.00000000E+00  0.00000000E+00
  0.00000000E+00  0.00000000E+00  0.00000000E+00
  0.00000000E+00  0.00000000E+00  0.00000000E+00
  0.00000000E+00  0.00000000E+00  0.00000000E+00
  0.00000000E+00  0.00000000E+00  0.00000000E+00
  0.00000000E+00  0.00000000E+00  0.00000000E+00
  0.00000000E+00  0.00000000E+00  0.00000000E+00
  0.00000000E+00  0.00000000E+00  0.00000000E+00
  0.00000000E+00  0.00000000E+00  0.00000000E+00
  0.00000000E+00  0.00000000E+00  0.00000000E+00
  0.00000000E+00  0.00000000E+00  0.00000000E+00
  0.00000000E+00  0.00000000E+00  0.00000000E+00
  0.00000000E+00  0.00000000E+00  0.00000000E+00
  0.00000000E+00  0.00000000E+00  0.00000000E+00
  0.00000000E+00  0.00000000E+00  0.00000000E+00
  0.00000000E+00  0.00000000E+00  0.00000000E+00
  0.00000000E+00  0.00000000E+00  0.00000000E+00
  0.00000000E+00  0.00000000E+00  0.00000000E+00
  0.00000000E+00  0.00000000E+00  0.00000000E+00
  0.00000000E+00  0.00000000E+00  0.00000000E+00
  0.00000000E+00  0.00000000E+00  0.00000000E+00
  0.00000000E+00  0.00000000E+00  0.00000000E+00
  0.00000000E+00  0.00000000E+00  0.00000000E+00
  0.00000000E+00  0.00000000E+00  0.00000000E+00
  0.00000000E+00  0.00000000E+00  0.00000000E+00
  0.00000000E+00  0.00000000E+00  0.00000000E+00
  0.00000000E+00  0.00000000E+00  0.00000000E+00
  0.00000000E+00  0.00000000E+00  0.00000000E+00
  0.00000000E+00  0.00000000E+00  0.00000000E+00
  0.00000000E+00  0.00000000E+00  0.00000000E+00
  0.00000000E+00  0.00000000E+00  0.00000000E+00
  0.00000000E+00  0.00000000E+00  0.00000000E+00
  0.00000000E+00  0.00000000E+00  0.00000000E+00
  0.00000000E+00  0.00000000E+00  0.00000000E+00
  0.00000000E+00  0.00000000E+00  0.00000000E+00
  0.00000000E+00  0.00000000E+00  0.00000000E+00
  0.00000000E+00  0.00000000E+00  0.00000000E+00
  0.00000000E+00  0.00000000E+00  0.00000000E+00
  0.00000000E+00  0.00000000E+00  0.00000000E+00
  0.00000000E+00  0.00000000E+00  0.00000000E+00
  0.00000000E+00  0.00000000E+00  0.00000000E+00
  0.00000000E+00  0.00000000E+00  0.00000000E+00
  0.00000000E+00  0.00000000E+00  0.00000000E+00
  0.00000000E+00  0.00000000E+00  0.00000000E+00
  0.00000000E+00  0.00000000E+00  0.00000000E+00
  0.00000000E+00  0.00000000E+00  0.00000000E+00
  0.00000000E+00  0.00000000E+00  0.00000000E+00
  0.00000000E+00  0.00000000E+00  0.00000000E+00
  0.00000000E+00  0.00000000E+00  0.00000000E+00
  0.00000000E+00  0.00000000E+00  0.00000000E+00
  0.00000000E+00  0.00000000E+00  0.00000000E+00
  0.00000000E+00  0.00000000E+00  0.00000000E+00
  0.00000000E+00  0.00000000E+00  0.00000000E+00
  0.00000000E+00  0.00000000E+00  0.00000000E+00
