System                                  
   1.0000000000000000     
    10.3626541995670749    0.6680397148495248    5.8900744478487770
     3.5100475804119782   10.0732086450450389    5.5779958001142633
    -0.2770176937874708    0.4281704396772118   11.5097365705302366
  Li              Mn              O             
    14    32    64
Direct
     0.0695524899300100    0.0688460785089962    0.0555953936848947
     0.0708396056669872    0.5655024263037680    0.0599994717769434
     0.0739987673938756    0.5643292920590914    0.5538055409179420
     0.5665607867742382    0.0693352601481098    0.0594867990442200
     0.5638572306714984    0.0755335049840166    0.5522722933618440
     0.5693398002704172    0.5687468408628270    0.0574025587742082
     0.5654745792301854    0.5662671782247628    0.5569394030701235
     0.4306401392924436    0.4295944532746704    0.9456821079813402
     0.4229365853185676    0.9343260287495205    0.4471646112969351
     0.4289862479278556    0.9347573566464022    0.9429660032876480
     0.9338641141826208    0.4244097361263841    0.4459654106357011
     0.9352440497912838    0.4283530777426999    0.9425140894863587
     0.9336328992723713    0.9353049346169707    0.4385696556415649
     0.9348137664053638    0.9341844937677639    0.9420491701291978
     0.2498470611867115    0.2486962357573486    0.0014388800436562
     0.2497831857528398    0.2494443391380224    0.5002362727424587
     0.2508008717122283    0.7492127628053862    0.0014449768507192
     0.2473195672811367    0.7494877691927977    0.5003755385531621
     0.7499065666876175    0.2506476058582959    0.0000571961373925
     0.7481693039678606    0.2482885667480881    0.4986482715220693
     0.7557011489936469    0.7539021709679747    0.9979343431782961
     0.7495142842539898    0.7511452967391274    0.4981412136125620
     0.2480085420660882    0.0013620686307481    0.2529046014482436
     0.2476647026577427    0.0004896857920413    0.7494858464583243
     0.2521039420449276    0.4984092699080402    0.2520345321552936
     0.2499262322846782    0.4961794846620441    0.7510279153490885
     0.7499436105424446    0.0017631584560954    0.2489441884731554
     0.7504613169892125    0.0033619270746063    0.7474607492272238
     0.7502274322185541    0.4993285798221272    0.2494151292895017
     0.7505444874303694    0.4998543499423493    0.7491666494439865
     0.0013668080194994    0.2497371761232737    0.2510519268322391
     0.0008893474468205    0.2472879361249889    0.7489343665019123
     0.0011691184748337    0.7501909830178666    0.2497368579763430
     0.0033586311068560    0.7502709399096950    0.7484722397576993
     0.4988046106866778    0.2523329960204139    0.2509384362944160
     0.4966128454822591    0.2495339851768089    0.7497946714733924
     0.4987864599932407    0.7499892857830814    0.2504081489031196
     0.4994370000137971    0.7507031185645205    0.7500922766764336
     0.2501239501580084    0.2495988518258471    0.2506899284605969
     0.2490023924422851    0.2489777663974778    0.7507806687891333
     0.2505884440685375    0.7506800184796424    0.2499316120502687
     0.2479541111938314    0.7463399092231153    0.7550987763427320
     0.7516802717441179    0.2507052796873100    0.2481596192138191
     0.7473755061375310    0.2473514351387977    0.7531672063153989
     0.7497572481350915    0.7503807490496873    0.2509967364401408
     0.7540400207270457    0.7560817783677101    0.7412751045613069
     0.1399268902870210    0.1405344343784037    0.3471651508401707
     0.1371012514629550    0.1364801268125414    0.8516376409820186
     0.1384560359697701    0.6394133657734599    0.3505797718974238
     0.1334756777785735    0.6355562420184994    0.8536449590145434
     0.6407852489068158    0.1379331399794795    0.3491513135876301
     0.6367183008750950    0.1312478045487118    0.8524202812784187
     0.6380203034580356    0.6380982328404129    0.3488312529074581
     0.6430028722446522    0.6439789403058727    0.8472126961261967
     0.1403850456151992    0.3615421718228282    0.1221024118415191
     0.1389936732418190    0.3611647276523672    0.6240111428055968
     0.1408451988849869    0.8618477527303463    0.1214871482290531
     0.1231741760012281    0.8485561773843111    0.6392387377679734
     0.6418064066443723    0.3628337168949994    0.1205629806298460
     0.6383724770020592    0.3568883864310821    0.6252559305950139
     0.6415910110560258    0.8615805498701062    0.1211103692895126
     0.6419821026946709    0.8640641714570253    0.6199142220839706
     0.3626244044063258    0.1400504410435987    0.1252498203704240
     0.3607596301955630    0.1382271114290856    0.6277052472146620
     0.3628145746013796    0.6408317070461130    0.1255616986494569
     0.3568910807343195    0.6390546369024191    0.6289827454365249
     0.8627166910670389    0.1406685527544728    0.1231862805124517
     0.8489124340474291    0.1234942868918031    0.6414391806206489
     0.8631297734501191    0.6428670244994266    0.1235851228090581
     0.8618419757092655    0.6432472159232234    0.6237796936182993
     0.1384455127606628    0.1375282466147022    0.1237861849528638
     0.1383425961701249    0.1391750031010666    0.6245904407065817
     0.1387782771736225    0.6381063805289555    0.1245675101258303
     0.1303841508578950    0.6384606294583395    0.6280641408904728
     0.6373051023717117    0.1400410658192833    0.1232719489238199
     0.6386803387867533    0.1322215085382729    0.6246488130513562
     0.6452410454010705    0.6421522623091255    0.1143208081935908
     0.6370916840801032    0.6392075027768129    0.6240761282464444
     0.3622862582024554    0.3629785032970322    0.1492420950802101
     0.3585248101808231    0.3593415825514729    0.6543480657608943
     0.3629917238280672    0.8631733527387719    0.1497075426180699
     0.3587437635367496    0.8586604501069419    0.6516279641035675
     0.8636871822325686    0.3634621549541637    0.1479430374060511
     0.8588420248617358    0.3584628457563979    0.6503793520285330
     0.8609300890123661    0.8624106305511358    0.1500240023246826
     0.8662034938238181    0.8691349117381576    0.6453178234667071
     0.3602818747616994    0.1377928525698646    0.3773092642853793
     0.3598065447228926    0.1376297333665624    0.8784343082180659
     0.3580174153696428    0.6457803805374267    0.3763424957902682
     0.3597880061221779    0.6367874265697400    0.8784697709799133
     0.8611246353250049    0.1385901576405437    0.3753944629690855
     0.8573276009702038    0.1383010436352463    0.8792023829621158
     0.8587572180648106    0.6382487167331401    0.3781675969496346
     0.8758586790462718    0.6495284543908286    0.8633058314500780
     0.1384126594372060    0.3605442838629421    0.3736906430988659
     0.1376527673603515    0.3581029686053734    0.8763363974746781
     0.1373584182749789    0.8603283002383895    0.3739326440209320
     0.1387794094113293    0.8569681646388748    0.8770784610976122
     0.6446783931385458    0.3571565980623367    0.3720059176881084
     0.6379652221744668    0.3600180576645208    0.8733284791030107
     0.6373544441913896    0.8596594773066463    0.3744511161848098
     0.6492795016412761    0.8762003593738028    0.8602574437310156
     0.3610042489674931    0.3587535455836998    0.3772980145664321
     0.3615165864235410    0.3613823105116925    0.8773510757086925
     0.3568312386755031    0.8619709992982407    0.3827969820693834
     0.3635237675429775    0.8609064340111849    0.8755242631448317
     0.8598355922368156    0.3604026311575325    0.3798426395096154
     0.8621261912885578    0.3628379980519489    0.8743158067511182
     0.8620333832436977    0.8618663174709228    0.3761188132641639
     0.8685297614847786    0.8659898744999982    0.8698088457981195

  0.00000000E+00  0.00000000E+00  0.00000000E+00
  0.00000000E+00  0.00000000E+00  0.00000000E+00
  0.00000000E+00  0.00000000E+00  0.00000000E+00
  0.00000000E+00  0.00000000E+00  0.00000000E+00
  0.00000000E+00  0.00000000E+00  0.00000000E+00
  0.00000000E+00  0.00000000E+00  0.00000000E+00
  0.00000000E+00  0.00000000E+00  0.00000000E+00
  0.00000000E+00  0.00000000E+00  0.00000000E+00
  0.00000000E+00  0.00000000E+00  0.00000000E+00
  0.00000000E+00  0.00000000E+00  0.00000000E+00
  0.00000000E+00  0.00000000E+00  0.00000000E+00
  0.00000000E+00  0.00000000E+00  0.00000000E+00
  0.00000000E+00  0.00000000E+00  0.00000000E+00
  0.00000000E+00  0.00000000E+00  0.00000000E+00
  0.00000000E+00  0.00000000E+00  0.00000000E+00
  0.00000000E+00  0.00000000E+00  0.00000000E+00
  0.00000000E+00  0.00000000E+00  0.00000000E+00
  0.00000000E+00  0.00000000E+00  0.00000000E+00
  0.00000000E+00  0.00000000E+00  0.00000000E+00
  0.00000000E+00  0.00000000E+00  0.00000000E+00
  0.00000000E+00  0.00000000E+00  0.00000000E+00
  0.00000000E+00  0.00000000E+00  0.00000000E+00
  0.00000000E+00  0.00000000E+00  0.00000000E+00
  0.00000000E+00  0.00000000E+00  0.00000000E+00
  0.00000000E+00  0.00000000E+00  0.00000000E+00
  0.00000000E+00  0.00000000E+00  0.00000000E+00
  0.00000000E+00  0.00000000E+00  0.00000000E+00
  0.00000000E+00  0.00000000E+00  0.00000000E+00
  0.00000000E+00  0.00000000E+00  0.00000000E+00
  0.00000000E+00  0.00000000E+00  0.00000000E+00
  0.00000000E+00  0.00000000E+00  0.00000000E+00
  0.00000000E+00  0.00000000E+00  0.00000000E+00
  0.00000000E+00  0.00000000E+00  0.00000000E+00
  0.00000000E+00  0.00000000E+00  0.00000000E+00
  0.00000000E+00  0.00000000E+00  0.00000000E+00
  0.00000000E+00  0.00000000E+00  0.00000000E+00
  0.00000000E+00  0.00000000E+00  0.00000000E+00
  0.00000000E+00  0.00000000E+00  0.00000000E+00
  0.00000000E+00  0.00000000E+00  0.00000000E+00
  0.00000000E+00  0.00000000E+00  0.00000000E+00
  0.00000000E+00  0.00000000E+00  0.00000000E+00
  0.00000000E+00  0.00000000E+00  0.00000000E+00
  0.00000000E+00  0.00000000E+00  0.00000000E+00
  0.00000000E+00  0.00000000E+00  0.00000000E+00
  0.00000000E+00  0.00000000E+00  0.00000000E+00
  0.00000000E+00  0.00000000E+00  0.00000000E+00
  0.00000000E+00  0.00000000E+00  0.00000000E+00
  0.00000000E+00  0.00000000E+00  0.00000000E+00
  0.00000000E+00  0.00000000E+00  0.00000000E+00
  0.00000000E+00  0.00000000E+00  0.00000000E+00
  0.00000000E+00  0.00000000E+00  0.00000000E+00
  0.00000000E+00  0.00000000E+00  0.00000000E+00
  0.00000000E+00  0.00000000E+00  0.00000000E+00
  0.00000000E+00  0.00000000E+00  0.00000000E+00
  0.00000000E+00  0.00000000E+00  0.00000000E+00
  0.00000000E+00  0.00000000E+00  0.00000000E+00
  0.00000000E+00  0.00000000E+00  0.00000000E+00
  0.00000000E+00  0.00000000E+00  0.00000000E+00
  0.00000000E+00  0.00000000E+00  0.00000000E+00
  0.00000000E+00  0.00000000E+00  0.00000000E+00
  0.00000000E+00  0.00000000E+00  0.00000000E+00
  0.00000000E+00  0.00000000E+00  0.00000000E+00
  0.00000000E+00  0.00000000E+00  0.00000000E+00
  0.00000000E+00  0.00000000E+00  0.00000000E+00
  0.00000000E+00  0.00000000E+00  0.00000000E+00
  0.00000000E+00  0.00000000E+00  0.00000000E+00
  0.00000000E+00  0.00000000E+00  0.00000000E+00
  0.00000000E+00  0.00000000E+00  0.00000000E+00
  0.00000000E+00  0.00000000E+00  0.00000000E+00
  0.00000000E+00  0.00000000E+00  0.00000000E+00
  0.00000000E+00  0.00000000E+00  0.00000000E+00
  0.00000000E+00  0.00000000E+00  0.00000000E+00
  0.00000000E+00  0.00000000E+00  0.00000000E+00
  0.00000000E+00  0.00000000E+00  0.00000000E+00
  0.00000000E+00  0.00000000E+00  0.00000000E+00
  0.00000000E+00  0.00000000E+00  0.00000000E+00
  0.00000000E+00  0.00000000E+00  0.00000000E+00
  0.00000000E+00  0.00000000E+00  0.00000000E+00
  0.00000000E+00  0.00000000E+00  0.00000000E+00
  0.00000000E+00  0.00000000E+00  0.00000000E+00
  0.00000000E+00  0.00000000E+00  0.00000000E+00
  0.00000000E+00  0.00000000E+00  0.00000000E+00
  0.00000000E+00  0.00000000E+00  0.00000000E+00
  0.00000000E+00  0.00000000E+00  0.00000000E+00
  0.00000000E+00  0.00000000E+00  0.00000000E+00
  0.00000000E+00  0.00000000E+00  0.00000000E+00
  0.00000000E+00  0.00000000E+00  0.00000000E+00
  0.00000000E+00  0.00000000E+00  0.00000000E+00
  0.00000000E+00  0.00000000E+00  0.00000000E+00
  0.00000000E+00  0.00000000E+00  0.00000000E+00
  0.00000000E+00  0.00000000E+00  0.00000000E+00
  0.00000000E+00  0.00000000E+00  0.00000000E+00
  0.00000000E+00  0.00000000E+00  0.00000000E+00
  0.00000000E+00  0.00000000E+00  0.00000000E+00
  0.00000000E+00  0.00000000E+00  0.00000000E+00
  0.00000000E+00  0.00000000E+00  0.00000000E+00
  0.00000000E+00  0.00000000E+00  0.00000000E+00
  0.00000000E+00  0.00000000E+00  0.00000000E+00
  0.00000000E+00  0.00000000E+00  0.00000000E+00
  0.00000000E+00  0.00000000E+00  0.00000000E+00
  0.00000000E+00  0.00000000E+00  0.00000000E+00
  0.00000000E+00  0.00000000E+00  0.00000000E+00
  0.00000000E+00  0.00000000E+00  0.00000000E+00
  0.00000000E+00  0.00000000E+00  0.00000000E+00
  0.00000000E+00  0.00000000E+00  0.00000000E+00
  0.00000000E+00  0.00000000E+00  0.00000000E+00
  0.00000000E+00  0.00000000E+00  0.00000000E+00
  0.00000000E+00  0.00000000E+00  0.00000000E+00
  0.00000000E+00  0.00000000E+00  0.00000000E+00
  0.00000000E+00  0.00000000E+00  0.00000000E+00
