System                                  
   1.0000000000000000     
    -0.1891717193075852    4.3209335271097604    3.7397569273302262
     4.3211178933827474   -0.1884722727993858    3.7392580632444763
     4.1326578438346182    4.1315164537914235   -0.0005942951887930
  Sn              Ge              S             
     1     1     4
Direct
    -0.0006775568980457    0.0000746812901311    0.0001500189152662
     0.5001402610801653    0.5000097850150900    0.4999284342693772
     0.8918886326322751    0.4689886968551186    0.1191661630371127
     0.1082587617866796    0.5310838640716757    0.4800893491292993
     0.4693031629241934    0.8917560479731673    0.5199659951030955
     0.5310867384747437    0.1080869247948163    0.8807000395458503

  0.00000000E+00  0.00000000E+00  0.00000000E+00
  0.00000000E+00  0.00000000E+00  0.00000000E+00
  0.00000000E+00  0.00000000E+00  0.00000000E+00
  0.00000000E+00  0.00000000E+00  0.00000000E+00
  0.00000000E+00  0.00000000E+00  0.00000000E+00
  0.00000000E+00  0.00000000E+00  0.00000000E+00
