System
1.0
4.7446618023153135 0.0099399559570301 -2.730615720269777
1.5761285822583455 4.585385422361955 -2.7328962780716393
-0.0083918275341887 -0.0020965728456928 5.473890328741637
Fe O 
1 6 
direct
0.00023226629738486198 0.9965435471405499 0.9995542496519835 Fe
0.07283964326390485 0.763473547831519 0.6371504306263419 O
0.22830874342877416 0.23559448957710466 0.11507056421846079 O
0.6485922258391232 0.23571154897009347 0.7715600101407498 O
0.3625760244968744 0.763346648962801 0.20140521514939183 O
0.7983145364199504 0.7634313423323674 0.9268018960543539 O
0.8848153631997815 0.23558024854304552 0.3512195472220298 O
