System                                  
   1.0000000000000000     
    10.3626541995670749    0.6680397148495248    5.8900744478487770
     3.5100475804119782   10.0732086450450389    5.5779958001142633
    -0.2770176937874708    0.4281704396772118   11.5097365705302366
  Li              Mn              O             
     1    32    64
Direct
     0.4369997624688392    0.9382660125972642    0.4377218870972105
     0.2482234416851707    0.2465801697358029    0.0013410867966607
     0.2456483342418333    0.2482917009845947    0.5032361297516714
     0.2508088925284067    0.7478819506062994    0.0009399441478577
     0.2523001481409760    0.7504626754631809    0.5004236850995347
     0.7503523927123610    0.2517971431432494    0.9987139170054385
     0.7475556387664334    0.2504579617400517    0.5005093188526777
     0.7528004886859290    0.7506444819125483    0.9981898070146965
     0.7508987587450896    0.7512691526374892    0.4997464224689140
     0.2485250666448241    0.9996668156652585    0.2498013808487529
     0.2482551546099131    0.9994556832487596    0.7525180764614434
     0.2467113289035338    0.4981061043058005    0.2532396003357403
     0.2509813822674597    0.4980062203070542    0.7504844339200512
     0.7504567375408407    0.0036622775848347    0.2476769867291819
     0.7507922986414255    0.0003444394868538    0.7491122465995464
     0.7507844245965020    0.5003033981114505    0.2499976472764033
     0.7507971794154654    0.5001213135485751    0.7486855636640970
     0.9984237479644624    0.2488819788171403    0.2516205568639286
     0.9982250237928980    0.2482914893189423    0.7509657757977612
     0.0000572867987138    0.7511042326959504    0.2498243095549977
     0.0029245676152622    0.7517946893923237    0.7482157442819356
     0.4987926554602585    0.2516634269152249    0.2498228517042843
     0.4978330152360238    0.2464728395274447    0.7519626824494829
     0.5019655327261200    0.7502925203323525    0.2475355831188145
     0.5017522759387364    0.7501249683454098    0.7510242534850229
     0.2460450463195570    0.2487226991590940    0.2525218667759225
     0.2482717988102041    0.2459977999185813    0.7536419245332214
     0.2507939037200550    0.7479185639793454    0.2514056741575787
     0.2517823796926123    0.7505896856599801    0.7482431248127409
     0.7503068924215164    0.2523548122201374    0.2477999144826842
     0.7473164713999465    0.2506111890091476    0.7505257590746451
     0.7509746578286866    0.7511081525785506    0.2483905136167965
     0.7530860583330252    0.7501305737470874    0.7486497629734793
     0.1365934736564000    0.1332066290812329    0.3516749139878766
     0.1360317406199901    0.1317895343659962    0.8524202704228167
     0.1373405239010188    0.6354735843513650    0.3511190416747535
     0.1407290565097459    0.6401121905976960    0.8478533032738717
     0.6401230972997252    0.1372450448544671    0.3476468781495392
     0.6386137888031310    0.1339144126604619    0.8501632947254104
     0.6394311946514828    0.6373023282210502    0.3484062808872993
     0.6407782320805623    0.6357383253912223    0.8486958128714643
     0.1249254305347058    0.3472247706637790    0.1365207630310907
     0.1246346423707725    0.3467329950004702    0.6377904998464979
     0.1280821746626363    0.8478452488820536    0.1357892128812065
     0.1284628012326737    0.8516680449225454    0.6336165044995906
     0.6331583303748178    0.3530880234733307    0.1294930051445896
     0.6229341440539256    0.3483685294063704    0.6368541867203167
     0.6278897787581100    0.8501776225976025    0.1336924030227840
     0.6279555853267803    0.8500169268712428    0.6352764271103500
     0.3473439530399415    0.1246257880214778    0.1418894368447830
     0.3471678677350213    0.1241191927187910    0.6398659303859908
     0.3484805168326471    0.6232320470960078    0.1415519948594772
     0.3541698727081590    0.6361452288004017    0.6321799482279346
     0.8503668628355410    0.1268203865913268    0.1378294481320081
     0.8476824445639782    0.1280898867241393    0.6384177104018348
     0.8506062864481397    0.6277465488465819    0.1389196184849141
     0.8506912600375560    0.6275025626377789    0.6365118744551157
     0.1332329074152002    0.1357753296007039    0.1288866677309722
     0.1330386700666770    0.1355598531291184    0.6291186937673687
     0.1340292600611800    0.6389240103607510    0.1271455665375008
     0.1381070008095090    0.6419113792591613    0.6234982607141433
     0.6377757171994102    0.1399307248288416    0.1237220136698208
     0.6354275245638046    0.1370370363336233    0.6261282546788367
     0.6368016312709643    0.6397772268193638    0.1249247309408913
     0.6358406283534381    0.6409382018186590    0.6250132168887383
     0.3563004535368719    0.3632976653843827    0.1538304732446988
     0.3604315250127083    0.3573888143504395    0.6529396861984801
     0.3617405459007892    0.8636362097766624    0.1503607119794065
     0.3651496185536675    0.8673012233184018    0.6461250794554537
     0.8616064062734066    0.3657942998049111    0.1500222573740630
     0.8599396847877702    0.3645284964316765    0.6500905852973056
     0.8605323547357475    0.8661716215656070    0.1503346543270814
     0.8630718615712074    0.8650146680351002    0.6491591590697022
     0.3645529380454529    0.1430968360402234    0.3727090122456615
     0.3726379692009714    0.1458326759251078    0.8674012828908766
     0.3758924520113486    0.6514367156539391    0.3645390139120890
     0.3756947437421725    0.6510482395595150    0.8631665035227837
     0.8716402930339977    0.1514413076546181    0.3653275396310265
     0.8712146305816835    0.1511060285129347    0.8644295737464831
     0.8722863944309170    0.6528291466143272    0.3643975680666989
     0.8768940425387431    0.6513407789681696    0.8630487459976262
     0.1466072382991742    0.3720202535934226    0.3639626911227845
     0.1470558449005236    0.3618021772649793    0.8684924935944541
     0.1522386192285818    0.8721536093929234    0.3612654704891405
     0.1521874255154757    0.8718691365926396    0.8619496728388439
     0.6502971849366391    0.3755038899083839    0.3594472265186981
     0.6501267889604492    0.3753294695871938    0.8604555904366021
     0.6461981423379821    0.8760286812049763    0.3624318515752443
     0.6531408332866235    0.8722967203728808    0.8604758468752081
     0.3585785898008491    0.3593857739721327    0.3784583123940591
     0.3635997863295919    0.3558875494967875    0.8764458667858930
     0.3680552058216594    0.8645120887258396    0.3721405090488322
     0.3650163803919470    0.8602641000798094    0.8749508531631237
     0.8633472400364147    0.3612324456643711    0.3748358816972146
     0.8651643399178309    0.3618159075654583    0.8720625759563615
     0.8638096751979575    0.8630631951948868    0.3732597606626695
     0.8660994582760486    0.8621695357859407    0.8728462200534679

  0.00000000E+00  0.00000000E+00  0.00000000E+00
  0.00000000E+00  0.00000000E+00  0.00000000E+00
  0.00000000E+00  0.00000000E+00  0.00000000E+00
  0.00000000E+00  0.00000000E+00  0.00000000E+00
  0.00000000E+00  0.00000000E+00  0.00000000E+00
  0.00000000E+00  0.00000000E+00  0.00000000E+00
  0.00000000E+00  0.00000000E+00  0.00000000E+00
  0.00000000E+00  0.00000000E+00  0.00000000E+00
  0.00000000E+00  0.00000000E+00  0.00000000E+00
  0.00000000E+00  0.00000000E+00  0.00000000E+00
  0.00000000E+00  0.00000000E+00  0.00000000E+00
  0.00000000E+00  0.00000000E+00  0.00000000E+00
  0.00000000E+00  0.00000000E+00  0.00000000E+00
  0.00000000E+00  0.00000000E+00  0.00000000E+00
  0.00000000E+00  0.00000000E+00  0.00000000E+00
  0.00000000E+00  0.00000000E+00  0.00000000E+00
  0.00000000E+00  0.00000000E+00  0.00000000E+00
  0.00000000E+00  0.00000000E+00  0.00000000E+00
  0.00000000E+00  0.00000000E+00  0.00000000E+00
  0.00000000E+00  0.00000000E+00  0.00000000E+00
  0.00000000E+00  0.00000000E+00  0.00000000E+00
  0.00000000E+00  0.00000000E+00  0.00000000E+00
  0.00000000E+00  0.00000000E+00  0.00000000E+00
  0.00000000E+00  0.00000000E+00  0.00000000E+00
  0.00000000E+00  0.00000000E+00  0.00000000E+00
  0.00000000E+00  0.00000000E+00  0.00000000E+00
  0.00000000E+00  0.00000000E+00  0.00000000E+00
  0.00000000E+00  0.00000000E+00  0.00000000E+00
  0.00000000E+00  0.00000000E+00  0.00000000E+00
  0.00000000E+00  0.00000000E+00  0.00000000E+00
  0.00000000E+00  0.00000000E+00  0.00000000E+00
  0.00000000E+00  0.00000000E+00  0.00000000E+00
  0.00000000E+00  0.00000000E+00  0.00000000E+00
  0.00000000E+00  0.00000000E+00  0.00000000E+00
  0.00000000E+00  0.00000000E+00  0.00000000E+00
  0.00000000E+00  0.00000000E+00  0.00000000E+00
  0.00000000E+00  0.00000000E+00  0.00000000E+00
  0.00000000E+00  0.00000000E+00  0.00000000E+00
  0.00000000E+00  0.00000000E+00  0.00000000E+00
  0.00000000E+00  0.00000000E+00  0.00000000E+00
  0.00000000E+00  0.00000000E+00  0.00000000E+00
  0.00000000E+00  0.00000000E+00  0.00000000E+00
  0.00000000E+00  0.00000000E+00  0.00000000E+00
  0.00000000E+00  0.00000000E+00  0.00000000E+00
  0.00000000E+00  0.00000000E+00  0.00000000E+00
  0.00000000E+00  0.00000000E+00  0.00000000E+00
  0.00000000E+00  0.00000000E+00  0.00000000E+00
  0.00000000E+00  0.00000000E+00  0.00000000E+00
  0.00000000E+00  0.00000000E+00  0.00000000E+00
  0.00000000E+00  0.00000000E+00  0.00000000E+00
  0.00000000E+00  0.00000000E+00  0.00000000E+00
  0.00000000E+00  0.00000000E+00  0.00000000E+00
  0.00000000E+00  0.00000000E+00  0.00000000E+00
  0.00000000E+00  0.00000000E+00  0.00000000E+00
  0.00000000E+00  0.00000000E+00  0.00000000E+00
  0.00000000E+00  0.00000000E+00  0.00000000E+00
  0.00000000E+00  0.00000000E+00  0.00000000E+00
  0.00000000E+00  0.00000000E+00  0.00000000E+00
  0.00000000E+00  0.00000000E+00  0.00000000E+00
  0.00000000E+00  0.00000000E+00  0.00000000E+00
  0.00000000E+00  0.00000000E+00  0.00000000E+00
  0.00000000E+00  0.00000000E+00  0.00000000E+00
  0.00000000E+00  0.00000000E+00  0.00000000E+00
  0.00000000E+00  0.00000000E+00  0.00000000E+00
  0.00000000E+00  0.00000000E+00  0.00000000E+00
  0.00000000E+00  0.00000000E+00  0.00000000E+00
  0.00000000E+00  0.00000000E+00  0.00000000E+00
  0.00000000E+00  0.00000000E+00  0.00000000E+00
  0.00000000E+00  0.00000000E+00  0.00000000E+00
  0.00000000E+00  0.00000000E+00  0.00000000E+00
  0.00000000E+00  0.00000000E+00  0.00000000E+00
  0.00000000E+00  0.00000000E+00  0.00000000E+00
  0.00000000E+00  0.00000000E+00  0.00000000E+00
  0.00000000E+00  0.00000000E+00  0.00000000E+00
  0.00000000E+00  0.00000000E+00  0.00000000E+00
  0.00000000E+00  0.00000000E+00  0.00000000E+00
  0.00000000E+00  0.00000000E+00  0.00000000E+00
  0.00000000E+00  0.00000000E+00  0.00000000E+00
  0.00000000E+00  0.00000000E+00  0.00000000E+00
  0.00000000E+00  0.00000000E+00  0.00000000E+00
  0.00000000E+00  0.00000000E+00  0.00000000E+00
  0.00000000E+00  0.00000000E+00  0.00000000E+00
  0.00000000E+00  0.00000000E+00  0.00000000E+00
  0.00000000E+00  0.00000000E+00  0.00000000E+00
  0.00000000E+00  0.00000000E+00  0.00000000E+00
  0.00000000E+00  0.00000000E+00  0.00000000E+00
  0.00000000E+00  0.00000000E+00  0.00000000E+00
  0.00000000E+00  0.00000000E+00  0.00000000E+00
  0.00000000E+00  0.00000000E+00  0.00000000E+00
  0.00000000E+00  0.00000000E+00  0.00000000E+00
  0.00000000E+00  0.00000000E+00  0.00000000E+00
  0.00000000E+00  0.00000000E+00  0.00000000E+00
  0.00000000E+00  0.00000000E+00  0.00000000E+00
  0.00000000E+00  0.00000000E+00  0.00000000E+00
  0.00000000E+00  0.00000000E+00  0.00000000E+00
  0.00000000E+00  0.00000000E+00  0.00000000E+00
  0.00000000E+00  0.00000000E+00  0.00000000E+00
