System
1.0
4.883239389336559 0.0624048425770649 2.4875964033073488
-1.3061957063352603 4.727751883757618 2.4454625171366873
-0.3985001831331562 -0.49103851818936 6.843303533526588
Mn O 
4 8 
direct
0.5041840328466203 0.5170672607884903 -0.008622594820580896 Mn
0.5082083695816855 0.024786314603469015 0.479137327156804 Mn
0.5041036608444248 0.02173477661061492 0.9915295676787496 Mn
0.012987645995748814 0.024811370229309414 0.4790843309823848 Mn
0.3031956201531322 0.30143591760946536 -0.07303994624251674 O
0.7722787872048654 0.27517669445294896 0.45574697451708923 O
0.22812879703117214 0.759391161845006 0.5439144860257263 O
0.7715236498634839 0.7968444566995656 0.45726335033115995 O
0.2285425149278037 0.2263612481635517 0.5430785694346504 O
0.2541265385881843 0.758213483954231 0.013841387097600773 O
0.7314591797523714 0.757961267579563 0.014339873729818273 O
0.769630167538883 0.301304979306082 0.927211329247748 O
