System                                  
   1.0000000000000000     
    10.3626541995670749    0.6680397148495248    5.8900744478487770
     3.5100475804119782   10.0732086450450389    5.5779958001142633
    -0.2770176937874708    0.4281704396772118   11.5097365705302366
  Li              Mn              O             
     8    32    64
Direct
     0.0600490763619970    0.0595846183073473    0.0681495975241320
     0.5681933488401749    0.5732756173097554    0.0558964874457295
     0.4260413194678273    0.4280937909992487    0.9469350090715670
     0.4370538463377633    0.9284847193450111    0.4454903854935202
     0.4392886380679401    0.9323276408036472    0.9394809883966524
     0.9336492411530691    0.4337268723155850    0.4405901924461574
     0.9334168595680516    0.4410861000148782    0.9346787030470107
     0.9361090005468236    0.9369796182300432    0.9378992339443875
     0.2429457206034413    0.2412443894949009    0.0063052094525307
     0.2413743631399756    0.2375332145820064    0.5080720419035268
     0.2507097096054197    0.7459891013648187    0.0053226726955955
     0.2501395796865392    0.7500624755440618    0.5029241442202607
     0.7463577584218647    0.2552008594681251    0.9973839771280636
     0.7494559096361182    0.2510824210878572    0.4963808845821743
     0.7584848947846494    0.7580326971084838    0.9944841785660175
     0.7580202452252270    0.7563829706808540    0.4966918454384555
     0.2483702921901112    0.9953402318230429    0.2557985292288187
     0.2435367535397186    0.9938767490622605    0.7573591866915177
     0.2447447178505031    0.4941513337134967    0.2606220948350240
     0.2453510736392762    0.4957578897558705    0.7515504201691050
     0.7532899097442388    0.0065117402777117    0.2466423057616150
     0.7515627410589267    0.0061648914653576    0.7421636888452736
     0.7560013108294065    0.5058130844934394    0.2439372154296708
     0.7527420407047247    0.5057307161618221    0.7423550975283981
     0.9981605213148282    0.2473312562086250    0.2516777500301719
     0.9952553897089885    0.2435055509409535    0.7521077668174204
     0.0044064379540425    0.7521993715094534    0.2505805907144573
     0.0043983163803314    0.7530007535358557    0.7452685923065917
     0.4958426910601921    0.2474680772534050    0.2561715068223768
     0.4955655308425046    0.2465562922984749    0.7481061949036444
     0.5061604165066387    0.7520341117150421    0.2491724907508510
     0.5039687978718635    0.7527051147664112    0.7482476144143646
     0.2440946905787374    0.2394703399296447    0.2594339312741822
     0.2402541161349644    0.2397881864159886    0.7615459797793417
     0.2520664919143347    0.7483318159682727    0.2545268612500811
     0.2485617376317232    0.7452291098461854    0.7539210905635700
     0.7511784135300441    0.2558551002133624    0.2449270508423215
     0.7467616993653777    0.2505597540227189    0.7457991931197897
     0.7581613208426004    0.7579836357466198    0.2386896383852593
     0.7558280509993454    0.7595167779014765    0.7395133814997141
     0.1325896687356336    0.1286416831568367    0.3548345605669901
     0.1260241631571344    0.1247878146283474    0.8620593779851600
     0.1382933761461045    0.6417389694309583    0.3508835758679592
     0.1368649229072015    0.6382430167066090    0.8491564897603486
     0.6453143006222370    0.1397411503157528    0.3445546400934557
     0.6388467199038856    0.1370685563709591    0.8441100809154677
     0.6483791094180654    0.6472200195099217    0.3413593571294909
     0.6401361386560148    0.6474364169587874    0.8487420704372508
     0.1246710764151223    0.3430352011358397    0.1389734260658430
     0.1187541095877601    0.3396700325007315    0.6425753868803933
     0.1271570362170690    0.8551387736350303    0.1344020143906652
     0.1265913375406396    0.8518522382506841    0.6374733180874440
     0.6418012950708647    0.3664906699767405    0.1168704994132220
     0.6418617937126291    0.3554667621928097    0.6212503533941024
     0.6477557709840235    0.8616767694111233    0.1185890311098046
     0.6462215778996595    0.8620290988374241    0.6186958269982087
     0.3462769722954381    0.1207033710944074    0.1427978156352235
     0.3412964172748481    0.1162920680390243    0.6489581435319232
     0.3609942939042939    0.6398688639858040    0.1288543668045240
     0.3542349292013655    0.6412206898777619    0.6315253028566663
     0.8561878619036261    0.1306208906999194    0.1302474256478773
     0.8516123384805330    0.1272516349847274    0.6350525115822941
     0.8639561742148189    0.6488836753457076    0.1194746358971577
     0.8594253897176337    0.6441799505263385    0.6265081026170316
     0.1298407389501114    0.1289316290532413    0.1332201616744124
     0.1268579430421085    0.1259650370066413    0.6379248295127506
     0.1364181929661691    0.6403772334946932    0.1300078583014394
     0.1337477142943041    0.6435137586627098    0.6244706338980563
     0.6395234124743787    0.1433449687650779    0.1231260907817140
     0.6415713195662397    0.1382862808095522    0.6176406303645721
     0.6467334869526801    0.6438892855579660    0.1137378987499254
     0.6454715953114698    0.6458283001617101    0.6165042313472767
     0.3547303902479402    0.3552499513746630    0.1573868074918813
     0.3475758218687103    0.3507023645018124    0.6607646683746057
     0.3641986663070778    0.8656323929861297    0.1496862573423864
     0.3587587840705170    0.8645734427986630    0.6534020598676382
     0.8696891928931874    0.3639191994831443    0.1420373056628594
     0.8664296707650587    0.3563131724630464    0.6457378399824576
     0.8700674463336474    0.8720833241869018    0.1433262226763226
     0.8664588042631781    0.8697830662559352    0.6456886147473544
     0.3545943226322855    0.1305419728448461    0.3835273619513982
     0.3522924445412566    0.1323731474291057    0.8838629326345605
     0.3607663083456381    0.6476758868327332    0.3752589968520091
     0.3593356235449721    0.6388743142252847    0.8812208544998048
     0.8738231849581310    0.1519804618908088    0.3595071914167485
     0.8687037914065789    0.1456130823492317    0.8691662584914639
     0.8817958848936696    0.6496007861426009    0.3615515434722574
     0.8785905952961461    0.6516302700973200    0.8614636603572953
     0.1346582845633396    0.3500501081396100    0.3805186163319746
     0.1324440841482089    0.3503661409231021    0.8821848733267804
     0.1500663652797995    0.8733812189593505    0.3626006629489332
     0.1434882457043997    0.8691637937753957    0.8707802648826191
     0.6495036852420568    0.3639725322625295    0.3634864668286446
     0.6403574207033113    0.3640783711168921    0.8687913113688265
     0.6521400104856573    0.8811777784812870    0.3568599648609955
     0.6495132050584369    0.8807455516683742    0.8580007215817185
     0.3516913534043735    0.3477508579678778    0.3894414399739648
     0.3544728370902228    0.3535614951450571    0.8834003509753635
     0.3610853443484588    0.8664537202295822    0.3785749719607109
     0.3592390698726174    0.8631758818462000    0.8798719678737215
     0.8703828865710544    0.3616026606622435    0.3704528198810494
     0.8659633668726953    0.3624941910410183    0.8696253381686421
     0.8699319063593772    0.8675347187477058    0.3670846203337762
     0.8698073772659208    0.8700193500607372    0.8664648176720121

  0.00000000E+00  0.00000000E+00  0.00000000E+00
  0.00000000E+00  0.00000000E+00  0.00000000E+00
  0.00000000E+00  0.00000000E+00  0.00000000E+00
  0.00000000E+00  0.00000000E+00  0.00000000E+00
  0.00000000E+00  0.00000000E+00  0.00000000E+00
  0.00000000E+00  0.00000000E+00  0.00000000E+00
  0.00000000E+00  0.00000000E+00  0.00000000E+00
  0.00000000E+00  0.00000000E+00  0.00000000E+00
  0.00000000E+00  0.00000000E+00  0.00000000E+00
  0.00000000E+00  0.00000000E+00  0.00000000E+00
  0.00000000E+00  0.00000000E+00  0.00000000E+00
  0.00000000E+00  0.00000000E+00  0.00000000E+00
  0.00000000E+00  0.00000000E+00  0.00000000E+00
  0.00000000E+00  0.00000000E+00  0.00000000E+00
  0.00000000E+00  0.00000000E+00  0.00000000E+00
  0.00000000E+00  0.00000000E+00  0.00000000E+00
  0.00000000E+00  0.00000000E+00  0.00000000E+00
  0.00000000E+00  0.00000000E+00  0.00000000E+00
  0.00000000E+00  0.00000000E+00  0.00000000E+00
  0.00000000E+00  0.00000000E+00  0.00000000E+00
  0.00000000E+00  0.00000000E+00  0.00000000E+00
  0.00000000E+00  0.00000000E+00  0.00000000E+00
  0.00000000E+00  0.00000000E+00  0.00000000E+00
  0.00000000E+00  0.00000000E+00  0.00000000E+00
  0.00000000E+00  0.00000000E+00  0.00000000E+00
  0.00000000E+00  0.00000000E+00  0.00000000E+00
  0.00000000E+00  0.00000000E+00  0.00000000E+00
  0.00000000E+00  0.00000000E+00  0.00000000E+00
  0.00000000E+00  0.00000000E+00  0.00000000E+00
  0.00000000E+00  0.00000000E+00  0.00000000E+00
  0.00000000E+00  0.00000000E+00  0.00000000E+00
  0.00000000E+00  0.00000000E+00  0.00000000E+00
  0.00000000E+00  0.00000000E+00  0.00000000E+00
  0.00000000E+00  0.00000000E+00  0.00000000E+00
  0.00000000E+00  0.00000000E+00  0.00000000E+00
  0.00000000E+00  0.00000000E+00  0.00000000E+00
  0.00000000E+00  0.00000000E+00  0.00000000E+00
  0.00000000E+00  0.00000000E+00  0.00000000E+00
  0.00000000E+00  0.00000000E+00  0.00000000E+00
  0.00000000E+00  0.00000000E+00  0.00000000E+00
  0.00000000E+00  0.00000000E+00  0.00000000E+00
  0.00000000E+00  0.00000000E+00  0.00000000E+00
  0.00000000E+00  0.00000000E+00  0.00000000E+00
  0.00000000E+00  0.00000000E+00  0.00000000E+00
  0.00000000E+00  0.00000000E+00  0.00000000E+00
  0.00000000E+00  0.00000000E+00  0.00000000E+00
  0.00000000E+00  0.00000000E+00  0.00000000E+00
  0.00000000E+00  0.00000000E+00  0.00000000E+00
  0.00000000E+00  0.00000000E+00  0.00000000E+00
  0.00000000E+00  0.00000000E+00  0.00000000E+00
  0.00000000E+00  0.00000000E+00  0.00000000E+00
  0.00000000E+00  0.00000000E+00  0.00000000E+00
  0.00000000E+00  0.00000000E+00  0.00000000E+00
  0.00000000E+00  0.00000000E+00  0.00000000E+00
  0.00000000E+00  0.00000000E+00  0.00000000E+00
  0.00000000E+00  0.00000000E+00  0.00000000E+00
  0.00000000E+00  0.00000000E+00  0.00000000E+00
  0.00000000E+00  0.00000000E+00  0.00000000E+00
  0.00000000E+00  0.00000000E+00  0.00000000E+00
  0.00000000E+00  0.00000000E+00  0.00000000E+00
  0.00000000E+00  0.00000000E+00  0.00000000E+00
  0.00000000E+00  0.00000000E+00  0.00000000E+00
  0.00000000E+00  0.00000000E+00  0.00000000E+00
  0.00000000E+00  0.00000000E+00  0.00000000E+00
  0.00000000E+00  0.00000000E+00  0.00000000E+00
  0.00000000E+00  0.00000000E+00  0.00000000E+00
  0.00000000E+00  0.00000000E+00  0.00000000E+00
  0.00000000E+00  0.00000000E+00  0.00000000E+00
  0.00000000E+00  0.00000000E+00  0.00000000E+00
  0.00000000E+00  0.00000000E+00  0.00000000E+00
  0.00000000E+00  0.00000000E+00  0.00000000E+00
  0.00000000E+00  0.00000000E+00  0.00000000E+00
  0.00000000E+00  0.00000000E+00  0.00000000E+00
  0.00000000E+00  0.00000000E+00  0.00000000E+00
  0.00000000E+00  0.00000000E+00  0.00000000E+00
  0.00000000E+00  0.00000000E+00  0.00000000E+00
  0.00000000E+00  0.00000000E+00  0.00000000E+00
  0.00000000E+00  0.00000000E+00  0.00000000E+00
  0.00000000E+00  0.00000000E+00  0.00000000E+00
  0.00000000E+00  0.00000000E+00  0.00000000E+00
  0.00000000E+00  0.00000000E+00  0.00000000E+00
  0.00000000E+00  0.00000000E+00  0.00000000E+00
  0.00000000E+00  0.00000000E+00  0.00000000E+00
  0.00000000E+00  0.00000000E+00  0.00000000E+00
  0.00000000E+00  0.00000000E+00  0.00000000E+00
  0.00000000E+00  0.00000000E+00  0.00000000E+00
  0.00000000E+00  0.00000000E+00  0.00000000E+00
  0.00000000E+00  0.00000000E+00  0.00000000E+00
  0.00000000E+00  0.00000000E+00  0.00000000E+00
  0.00000000E+00  0.00000000E+00  0.00000000E+00
  0.00000000E+00  0.00000000E+00  0.00000000E+00
  0.00000000E+00  0.00000000E+00  0.00000000E+00
  0.00000000E+00  0.00000000E+00  0.00000000E+00
  0.00000000E+00  0.00000000E+00  0.00000000E+00
  0.00000000E+00  0.00000000E+00  0.00000000E+00
  0.00000000E+00  0.00000000E+00  0.00000000E+00
  0.00000000E+00  0.00000000E+00  0.00000000E+00
  0.00000000E+00  0.00000000E+00  0.00000000E+00
  0.00000000E+00  0.00000000E+00  0.00000000E+00
  0.00000000E+00  0.00000000E+00  0.00000000E+00
  0.00000000E+00  0.00000000E+00  0.00000000E+00
  0.00000000E+00  0.00000000E+00  0.00000000E+00
  0.00000000E+00  0.00000000E+00  0.00000000E+00
  0.00000000E+00  0.00000000E+00  0.00000000E+00
