System
1.0
5.46892 0.02261 8.31103
2.50597 4.86104 8.31103
0.03694 0.02263 9.94903
Li Co O 
4 8 16 
direct
0.7455428580994482 0.250755808050079 0.2546999874403365 Li
0.749248122160911 0.2477553928023696 0.7540568190896624 Li
0.7462514956570605 0.7553023987036844 0.2487085825788794 Li
0.7444300425673017 0.754401301367643 0.7508265079698093 Li
0.002739239992688 0.0015922696740529 0.0008751513300549 Co
0.0025491269225313 0.0007892813579336 0.4999112950468053 Co
0.002812005692139 0.4985174054784311 0.0008374630801942 Co
0.003138373764177 0.4996406129632961 0.4995087775617716 Co
0.498724809651561 0.999924383160682 0.000471420143201 Co
0.498406890961645 0.0002862506468302 0.4991560671284958 Co
0.4987541047520864 0.4986052847871198 0.9995020512877635 Co
0.4976057275311354 0.4976253605086251 0.49927138941171 Co
0.1259567330649185 0.1398476712534317 0.1333494928054854 O
0.12601013687305 0.1332886651211902 0.6352989423260363 O
0.1243043455073565 0.6366444320794906 0.1343827597897284 O
0.1252819370358888 0.6322837838439408 0.640980037968208 O
0.6387857775212907 0.1253717001428871 0.1291139255919476 O
0.6383857912106536 0.1264161198893793 0.6287010253898114 O
0.6424408828922802 0.6259513160553061 0.124871976619741 O
0.635751940817478 0.6278746486550062 0.6248738640391448 O
0.3698793750224708 0.3636161505426541 0.3674457417256976 O
0.372944986867897 0.3720932257106057 0.8609380613891289 O
0.3765015512005519 0.8574238680545648 0.3719492736994128 O
0.377438498620297 0.8652010737098658 0.8580314947936352 O
0.8599987017536763 0.3760440449311562 0.3703672681491213 O
0.8637258297902176 0.3766248236916223 0.8656746491219026 O
0.8613688232720756 0.8677704788901901 0.3775664611269187 O
0.8710772065703016 0.867570707343655 0.8740505657404855 O
