System
1.0
5.624891396843525 0.0233862392577008 9.343805935731773
2.6131818555432784 4.9810870482163185 9.343792779293635
0.0385017942130299 0.0233982432527669 10.906250253128071
Na Co O 
7 8 16 
direct
0.2500005557216278 0.2500003688208023 0.7499989745083977 Na
0.2500005497267582 0.7500005404293058 0.2499986371740707 Na
0.2500005964056896 0.7500006313170344 0.7499990386465867 Na
0.7500006277452809 0.2500003550127181 0.249998648107594 Na
0.7500006614109388 0.2500004539740672 0.7499990202191931 Na
0.7500007495734753 0.7500005960126717 0.2499986949047851 Na
0.7500005885832646 0.7500004360194137 0.7499989000990112 Na
5.168187773e-07 4.324123639e-07 -9.946443989e-07 Co
5.801696535e-07 3.586636888e-07 0.4999989214972262 Co
4.180054563e-07 0.5000003890731541 -9.888799899e-07 Co
5.079678648e-07 0.5000004191276833 0.4999990314013902 Co
0.5000005067976775 2.494392609e-07 -9.248306871e-07 Co
0.5000005499420054 3.974898707e-07 0.4999989993230555 Co
0.5000005867658975 0.500000376070778 -1.0091174377e-06 Co
0.5000005413761639 0.5000004798983492 0.4999988216763459 Co
0.134564913999073 0.1345639376098818 0.1345658792791194 O
0.1345652742808782 0.134564536011697 0.6345674651553657 O
0.1345615295645631 0.6345661364078723 0.1345683591406401 O
0.1345650190199628 0.6345631867027822 0.6345664343240272 O
0.6345666790791523 0.1345606554791056 0.1345685171813479 O
0.6345637761137042 0.1345641517230174 0.6345667707317684 O
0.6345644714685065 0.6345639969213941 0.1345665820987369 O
0.6345663599346101 0.6345660941900029 0.6345635018289506 O
0.3654344171519738 0.3654345612368779 0.3654349802511108 O
0.3654362942307375 0.365436645590652 0.8654319760365738 O
0.3654370411299303 0.8654364543845345 0.3654317798323622 O
0.3654341459091826 0.8654399925723971 0.865429987824397 O
0.8654358570862367 0.3654373580098741 0.3654321006346671 O
0.8654393466947644 0.3654343826588091 0.8654301763334772 O
0.8654355361021197 0.8654361504381073 0.3654310283104679 O
0.8654358919422122 0.8654368035973757 0.8654325916308467 O
