System                                  
   1.0000000000000000     
     5.4521459024924050    0.1009074338136047    8.5090874200047857
     2.5432082847723381    4.8995624031228786    8.5250990160071645
     0.0872569930052930    0.0870298895230970   10.1546090456343041
  Li              Co              O             
     4     8    16
Direct
     0.2490642673877496    0.2508289073126300    0.2498411072111746
     0.2495833676434411    0.2494114124008860    0.7507300617257961
     0.2482000489779775    0.7505008989951435    0.2511899444797980
     0.2456342165075201    0.7521004839026513    0.7519249302987487
     0.9975716061999946    0.9995547266044362    0.9986753022806503
     0.9972378654233571    0.9984694365537594    0.4995593146180848
     0.9967445557520812    0.4992986035220723    0.9987417291146679
     0.9981860603685092    0.4986691741561182    0.4989304964373414
     0.5017745679815583    1.0006022917254922    1.0013417847582715
     0.5027509552327607    0.0004196303045723    0.5010009252654452
     0.5032180501163819    0.5014637286798970    1.0000737466280698
     0.5023809770764205    0.5006890686506080    0.5007691922822330
     0.1376356477380538    0.1283026462644251    0.1294015399558231
     0.1385294070258062    0.1290064251697772    0.6279036896240954
     0.1417231935493288    0.6265065645240191    0.1276413298791302
     0.1391641661494541    0.6280573558761925    0.6273361519775529
     0.6244115451021854    0.1390897886855580    0.1391562879147161
     0.6222377992912608    0.1385263376196429    0.6409528119955008
     0.6245134074933197    0.6394153655592117    0.1374247964785670
     0.6232389430907206    0.6399868612321103    0.6391019362587226
     0.3624072575472211    0.3705841233721512    0.3710348205902239
     0.3582790065044654    0.3716560102358412    0.8736883750501714
     0.3613068892758822    0.8715657976777086    0.3709665930164800
     0.3610234730765351    0.8726472625215909    0.8713350168433197
     0.8755790136951973    0.3601429852112587    0.3612703180085556
     0.8755484249495757    0.3627588982273133    0.8601060183836179
     0.8779959892437547    0.8590023640397737    0.3608980962869837
     0.8769131828269254    0.8604311115420410    0.8600467861246248

  0.00000000E+00  0.00000000E+00  0.00000000E+00
  0.00000000E+00  0.00000000E+00  0.00000000E+00
  0.00000000E+00  0.00000000E+00  0.00000000E+00
  0.00000000E+00  0.00000000E+00  0.00000000E+00
  0.00000000E+00  0.00000000E+00  0.00000000E+00
  0.00000000E+00  0.00000000E+00  0.00000000E+00
  0.00000000E+00  0.00000000E+00  0.00000000E+00
  0.00000000E+00  0.00000000E+00  0.00000000E+00
  0.00000000E+00  0.00000000E+00  0.00000000E+00
  0.00000000E+00  0.00000000E+00  0.00000000E+00
  0.00000000E+00  0.00000000E+00  0.00000000E+00
  0.00000000E+00  0.00000000E+00  0.00000000E+00
  0.00000000E+00  0.00000000E+00  0.00000000E+00
  0.00000000E+00  0.00000000E+00  0.00000000E+00
  0.00000000E+00  0.00000000E+00  0.00000000E+00
  0.00000000E+00  0.00000000E+00  0.00000000E+00
  0.00000000E+00  0.00000000E+00  0.00000000E+00
  0.00000000E+00  0.00000000E+00  0.00000000E+00
  0.00000000E+00  0.00000000E+00  0.00000000E+00
  0.00000000E+00  0.00000000E+00  0.00000000E+00
  0.00000000E+00  0.00000000E+00  0.00000000E+00
  0.00000000E+00  0.00000000E+00  0.00000000E+00
  0.00000000E+00  0.00000000E+00  0.00000000E+00
  0.00000000E+00  0.00000000E+00  0.00000000E+00
  0.00000000E+00  0.00000000E+00  0.00000000E+00
  0.00000000E+00  0.00000000E+00  0.00000000E+00
  0.00000000E+00  0.00000000E+00  0.00000000E+00
  0.00000000E+00  0.00000000E+00  0.00000000E+00
