System                                  
   1.0000000000000000     
    11.2888158734522239   -0.0928544633769874   -0.1894007937037525
    -5.6319805455326497   10.0111715265349748    0.0460122669168923
     0.0588833132854843    0.0806985960626714    8.7131923083954277
  Li              Mn              Co              Ni              O             
     8    12     8    12    64
Direct
     0.1739125172897267    0.3414133840890322    0.8878888789534300
     0.1737934829734452    0.8405448405099438    0.8875563984762874
     0.6732768511246561    0.3409504957428494    0.8870137225917862
     0.6744523806063424    0.8412552949633278    0.8864405096520430
     0.3324895994096485    0.1620331238584664    0.3925757676811867
     0.3326713358232575    0.6621402454535071    0.3907502448202742
     0.8322383798235503    0.1617062659713298    0.3918578358430842
     0.8324734680702894    0.6619661392000327    0.3907876454997766
     0.0845349887242322    0.4180622564576302    0.2113245065724200
     0.0840221404668584    0.9178227377877245    0.2114473980936685
     0.5843896435381231    0.4177906598712359    0.2110102797318717
     0.5842247454159868    0.9177871341655023    0.2104782533643825
     0.0844529084699707    0.1676847377514256    0.2119978505909543
     0.0851113874798427    0.6679174284865723    0.2112670097115812
     0.5847377324564724    0.1676756576936584    0.2114921883387797
     0.5849895418036127    0.6676497884477861    0.2107200898789463
     0.1641770977731502    0.0799239780387109    0.7110229857500735
     0.1652973173228319    0.5804871244542735    0.7097278498000615
     0.6646948099798418    0.0805677112018729    0.7101353319730973
     0.6648779066212440    0.5799593610720374    0.7096513003942801
     0.1669393757213119    0.3275336417624493    0.4903424729760867
     0.1672098372524933    0.8279045264862858    0.4898632217356825
     0.6672320223554277    0.3276368519248078    0.4898077204356195
     0.6670990880639087    0.8276455114449887    0.4893384999487611
     0.3399204699505844    0.1730180297700653    0.9874062229344844
     0.3410704651590479    0.6734217855868240    0.9862777091635023
     0.8404723754145464    0.1736393252106730    0.9867857121277148
     0.8407173304645170    0.6731591078663171    0.9863178793818531
     0.4180826117496667    0.0853597544348647    0.7121986110084277
     0.4189792283650895    0.5857428861950769    0.7111255756731546
     0.9181975952689184    0.0855813198516931    0.7119664645737681
     0.9189404518742302    0.5857581284833454    0.7111107495007249
     0.3334669332554663    0.4156858113731920    0.2099575925314456
     0.3334619589129703    0.9161470465683309    0.2093892298187182
     0.8336124151365716    0.4158739402781755    0.2093199263058709
     0.8333075904190274    0.9158849159031383    0.2089308485720785
     0.4144800325023784    0.3304487270477707    0.7125817511361390
     0.4150566202867239    0.8309323702494692    0.7116191786621437
     0.9149839741370239    0.3309953664175846    0.7119498371123705
     0.9145381340957743    0.8305681508876029    0.7117558325620625
     0.1707869407044830    0.0866575618897282    0.1035319554290774
     0.1718071061527152    0.5868962334015596    0.1031647213496892
     0.6710744715932521    0.0868393923936591    0.1026446779727450
     0.6713507362154898    0.5864301437474915    0.1025185484615415
     0.4200042966623845    0.3371120275544767    0.0941153808295675
     0.4202842915074788    0.8370722913456050    0.0932494910875173
     0.9206391574610098    0.3378414020803676    0.0934019526304264
     0.9202467772527919    0.8370196579927054    0.0935426471357934
     0.3351152837830683    0.1692885536769569    0.6058175088853961
     0.3361788549210433    0.6700181226514714    0.6042694424155832
     0.8356379277781203    0.1699174869090607    0.6050234334216836
     0.8358400898117340    0.6696575155659082    0.6042745461753257
     0.2635690758368026    0.0248682841960786    0.8459727179608083
     0.2648234079763216    0.5254494325934448    0.8445084456177768
     0.7640489045898089    0.0255229807029662    0.8452034336241565
     0.7646338742344173    0.5251355718399114    0.8444661959895424
     0.2594973893044311    0.2395734163851030    0.8406162072167045
     0.2602397739773945    0.7397238030351095    0.8395425625714470
     0.7599961745598476    0.2401551680584509    0.8397957003222448
     0.7596726546150020    0.7392314137263007    0.8394413858094684
     0.3214789082444878    0.4047124526498894    0.6011252771445407
     0.3214946122475513    0.9052570754647208    0.6010473680513200
     0.8220597165019197    0.4052084647369950    0.6002066279439598
     0.8211188514354336    0.9049024151573469    0.6009310071210072
     0.2333009166323706    0.2499580312719194    0.3505448193368205
     0.2342049202516656    0.7510151262355550    0.3496874715571462
     0.7336856611456533    0.2501755335519413    0.3497796644606500
     0.7339475761396648    0.7505820023240379    0.3492462739394122
     0.0192252266326573    0.2606215835977824    0.3417039592475745
     0.0194879927352757    0.7603969464827676    0.3413736590872989
     0.5194490719088193    0.2604839948702459    0.3414829400641537
     0.5195509391084541    0.7604130550461142    0.3406090130387736
     0.0801127696680405    0.1604454802255251    0.5957150956566769
     0.0809180163332355    0.6608488676863759    0.5947450446587111
     0.5803040087451130    0.1608724760127373    0.5954299881380001
     0.5805413646522812    0.6602478101793524    0.5941298517310836
     0.9956641461213344    0.9944007623358018    0.8171103753317905
     0.9970318366898072    0.4952896734292453    0.8163617073851409
     0.4963979243908170    0.9949333226998357    0.8167602645557899
     0.4967495239997974    0.4949323732847269    0.8164995509450004
     0.9973374986452703    0.9988351091022738    0.3173047564700622
     0.9982298006573233    0.4993776204119181    0.3170405245684313
     0.4979375579918285    0.9989211820338003    0.3169387608337504
     0.4983850066144871    0.4992879572121624    0.3170282848423414
     0.1688867860515769    0.3342792818820227    0.1023492428983417
     0.1690054296319518    0.8347444936658022    0.1020379722607625
     0.6689075506971489    0.3342503758628311    0.1017005314205967
     0.6689601743207474    0.8344275005509040    0.1010884729887647
     0.4844846096532862    0.2518238739812679    0.8468287760726594
     0.4856494835612388    0.7525033943868207    0.8453473029472078
     0.9851080625003504    0.2524413457240529    0.8461899698904306
     0.9851654168840326    0.7522797764831147    0.8455972987036446
     0.0810550453361339    0.4149046274836424    0.6000552874195839
     0.0806568860109899    0.9149588422825032    0.6003014674009666
     0.5807423674865788    0.4142325887415430    0.6004859935220291
     0.5809462920151748    0.9152668990199403    0.5996167606416760
     0.2386183073848903    0.4759051791689228    0.3486454354493579
     0.2379723198790614    0.9762186768012430    0.3488589325169588
     0.7386357978321476    0.4759169732660566    0.3480022330311125
     0.7381723356151259    0.9759568208478056    0.3479466168455028
     0.4188825315757450    0.0958920701824016    0.0975162119561975
     0.4194247672002132    0.5959171742142104    0.0965998276207419
     0.9190355016759231    0.0963441971362027    0.0972293169657183
     0.9196251730396738    0.5962375596217782    0.0966695031336059

  0.00000000E+00  0.00000000E+00  0.00000000E+00
  0.00000000E+00  0.00000000E+00  0.00000000E+00
  0.00000000E+00  0.00000000E+00  0.00000000E+00
  0.00000000E+00  0.00000000E+00  0.00000000E+00
  0.00000000E+00  0.00000000E+00  0.00000000E+00
  0.00000000E+00  0.00000000E+00  0.00000000E+00
  0.00000000E+00  0.00000000E+00  0.00000000E+00
  0.00000000E+00  0.00000000E+00  0.00000000E+00
  0.00000000E+00  0.00000000E+00  0.00000000E+00
  0.00000000E+00  0.00000000E+00  0.00000000E+00
  0.00000000E+00  0.00000000E+00  0.00000000E+00
  0.00000000E+00  0.00000000E+00  0.00000000E+00
  0.00000000E+00  0.00000000E+00  0.00000000E+00
  0.00000000E+00  0.00000000E+00  0.00000000E+00
  0.00000000E+00  0.00000000E+00  0.00000000E+00
  0.00000000E+00  0.00000000E+00  0.00000000E+00
  0.00000000E+00  0.00000000E+00  0.00000000E+00
  0.00000000E+00  0.00000000E+00  0.00000000E+00
  0.00000000E+00  0.00000000E+00  0.00000000E+00
  0.00000000E+00  0.00000000E+00  0.00000000E+00
  0.00000000E+00  0.00000000E+00  0.00000000E+00
  0.00000000E+00  0.00000000E+00  0.00000000E+00
  0.00000000E+00  0.00000000E+00  0.00000000E+00
  0.00000000E+00  0.00000000E+00  0.00000000E+00
  0.00000000E+00  0.00000000E+00  0.00000000E+00
  0.00000000E+00  0.00000000E+00  0.00000000E+00
  0.00000000E+00  0.00000000E+00  0.00000000E+00
  0.00000000E+00  0.00000000E+00  0.00000000E+00
  0.00000000E+00  0.00000000E+00  0.00000000E+00
  0.00000000E+00  0.00000000E+00  0.00000000E+00
  0.00000000E+00  0.00000000E+00  0.00000000E+00
  0.00000000E+00  0.00000000E+00  0.00000000E+00
  0.00000000E+00  0.00000000E+00  0.00000000E+00
  0.00000000E+00  0.00000000E+00  0.00000000E+00
  0.00000000E+00  0.00000000E+00  0.00000000E+00
  0.00000000E+00  0.00000000E+00  0.00000000E+00
  0.00000000E+00  0.00000000E+00  0.00000000E+00
  0.00000000E+00  0.00000000E+00  0.00000000E+00
  0.00000000E+00  0.00000000E+00  0.00000000E+00
  0.00000000E+00  0.00000000E+00  0.00000000E+00
  0.00000000E+00  0.00000000E+00  0.00000000E+00
  0.00000000E+00  0.00000000E+00  0.00000000E+00
  0.00000000E+00  0.00000000E+00  0.00000000E+00
  0.00000000E+00  0.00000000E+00  0.00000000E+00
  0.00000000E+00  0.00000000E+00  0.00000000E+00
  0.00000000E+00  0.00000000E+00  0.00000000E+00
  0.00000000E+00  0.00000000E+00  0.00000000E+00
  0.00000000E+00  0.00000000E+00  0.00000000E+00
  0.00000000E+00  0.00000000E+00  0.00000000E+00
  0.00000000E+00  0.00000000E+00  0.00000000E+00
  0.00000000E+00  0.00000000E+00  0.00000000E+00
  0.00000000E+00  0.00000000E+00  0.00000000E+00
  0.00000000E+00  0.00000000E+00  0.00000000E+00
  0.00000000E+00  0.00000000E+00  0.00000000E+00
  0.00000000E+00  0.00000000E+00  0.00000000E+00
  0.00000000E+00  0.00000000E+00  0.00000000E+00
  0.00000000E+00  0.00000000E+00  0.00000000E+00
  0.00000000E+00  0.00000000E+00  0.00000000E+00
  0.00000000E+00  0.00000000E+00  0.00000000E+00
  0.00000000E+00  0.00000000E+00  0.00000000E+00
  0.00000000E+00  0.00000000E+00  0.00000000E+00
  0.00000000E+00  0.00000000E+00  0.00000000E+00
  0.00000000E+00  0.00000000E+00  0.00000000E+00
  0.00000000E+00  0.00000000E+00  0.00000000E+00
  0.00000000E+00  0.00000000E+00  0.00000000E+00
  0.00000000E+00  0.00000000E+00  0.00000000E+00
  0.00000000E+00  0.00000000E+00  0.00000000E+00
  0.00000000E+00  0.00000000E+00  0.00000000E+00
  0.00000000E+00  0.00000000E+00  0.00000000E+00
  0.00000000E+00  0.00000000E+00  0.00000000E+00
  0.00000000E+00  0.00000000E+00  0.00000000E+00
  0.00000000E+00  0.00000000E+00  0.00000000E+00
  0.00000000E+00  0.00000000E+00  0.00000000E+00
  0.00000000E+00  0.00000000E+00  0.00000000E+00
  0.00000000E+00  0.00000000E+00  0.00000000E+00
  0.00000000E+00  0.00000000E+00  0.00000000E+00
  0.00000000E+00  0.00000000E+00  0.00000000E+00
  0.00000000E+00  0.00000000E+00  0.00000000E+00
  0.00000000E+00  0.00000000E+00  0.00000000E+00
  0.00000000E+00  0.00000000E+00  0.00000000E+00
  0.00000000E+00  0.00000000E+00  0.00000000E+00
  0.00000000E+00  0.00000000E+00  0.00000000E+00
  0.00000000E+00  0.00000000E+00  0.00000000E+00
  0.00000000E+00  0.00000000E+00  0.00000000E+00
  0.00000000E+00  0.00000000E+00  0.00000000E+00
  0.00000000E+00  0.00000000E+00  0.00000000E+00
  0.00000000E+00  0.00000000E+00  0.00000000E+00
  0.00000000E+00  0.00000000E+00  0.00000000E+00
  0.00000000E+00  0.00000000E+00  0.00000000E+00
  0.00000000E+00  0.00000000E+00  0.00000000E+00
  0.00000000E+00  0.00000000E+00  0.00000000E+00
  0.00000000E+00  0.00000000E+00  0.00000000E+00
  0.00000000E+00  0.00000000E+00  0.00000000E+00
  0.00000000E+00  0.00000000E+00  0.00000000E+00
  0.00000000E+00  0.00000000E+00  0.00000000E+00
  0.00000000E+00  0.00000000E+00  0.00000000E+00
  0.00000000E+00  0.00000000E+00  0.00000000E+00
  0.00000000E+00  0.00000000E+00  0.00000000E+00
  0.00000000E+00  0.00000000E+00  0.00000000E+00
  0.00000000E+00  0.00000000E+00  0.00000000E+00
  0.00000000E+00  0.00000000E+00  0.00000000E+00
  0.00000000E+00  0.00000000E+00  0.00000000E+00
  0.00000000E+00  0.00000000E+00  0.00000000E+00
  0.00000000E+00  0.00000000E+00  0.00000000E+00
