System                                  
   1.0000000000000000     
    11.3414376695480694   -0.0647836135991604   -0.2488026780888000
    -5.6337010728795018    9.9288513910399363    0.0710431474792025
     0.0222419509143507    0.0786910209071783    9.2036924770866690
  Li              Mn              Co              Ni              O             
     8    12     8    12    64
Direct
     0.1727155121368510    0.3398103395528659    0.9001398455023385
     0.1724103072107528    0.8379762777802903    0.8993894666213824
     0.6698335687875810    0.3385686036912925    0.8981973695238269
     0.6742287028719182    0.8403719651861133    0.8964317286248524
     0.3332221265025401    0.1624509105325732    0.4048353049300843
     0.3343008056723994    0.6633526020339446    0.4005011906025927
     0.8335649817330320    0.1628358657932352    0.4023433128641575
     0.8347018100037257    0.6637617959826448    0.4003643646065584
     0.0843001076626657    0.4178072923417432    0.2108214711765467
     0.0835834332999104    0.9171268665763803    0.2125556903572638
     0.5841606932599168    0.4175663980570717    0.2099749937898565
     0.5841190321684588    0.9176858030777961    0.2096356600369814
     0.0835705388599874    0.1671551108424187    0.2127214382368540
     0.0849261822670022    0.6676764144104896    0.2110184757277275
     0.5833098465246145    0.1671456390074146    0.2115398974053884
     0.5846118243292746    0.6676102447564851    0.2094634846447649
     0.1631554212703369    0.0802932241506175    0.7163158475411888
     0.1665558685596000    0.5810773845840039    0.7096697569827032
     0.6651151644580375    0.0821619618786212    0.7098124678505812
     0.6679931454717449    0.5804965285198186    0.7055163570639587
     0.1661658664134644    0.3278455293604757    0.4862370323651743
     0.1676869482948425    0.8283220152471890    0.4866825727842494
     0.6723824008882486    0.3315809165010186    0.4849350167100226
     0.6687368127642157    0.8277626432382204    0.4840567283450806
     0.3369459920333146    0.1698749618854674    0.9838620463946774
     0.3427972519456456    0.6738825462171093    0.9823789518075290
     0.8403567055794773    0.1735469219573446    0.9838010273641962
     0.8410747044990339    0.6728714323393208    0.9824224818593179
     0.4165924367761828    0.0854154314834436    0.7125850490729455
     0.4200349268897569    0.5872590527500663    0.7088086874566275
     0.9172949152788046    0.0856098415210148    0.7124338561934335
     0.9202196385457360    0.5862403260601066    0.7102080937617965
     0.3326446243344676    0.4148916711032368    0.2109597296539987
     0.3329278365370967    0.9161410860959952    0.2098284584114877
     0.8328950683043301    0.4150057487259071    0.2090987946709713
     0.8324885585404135    0.9157151438102618    0.2082063935673401
     0.4125948109906083    0.3314540789483464    0.7093129366010275
     0.4151797610270871    0.8320491363664009    0.7112737196433008
     0.9152456752580207    0.3316143224651836    0.7125538095558513
     0.9146579386362899    0.8305579684098330    0.7111209542478033
     0.1700241709046919    0.0855285529537221    0.1094027385139929
     0.1716754636626991    0.5871764469244666    0.1053919369445379
     0.6701985962161552    0.0870222075671309    0.1047990349359161
     0.6709478668403349    0.5866939432582249    0.1038133143668943
     0.4194472228486472    0.3369547460933049    0.0960520990827927
     0.4206914395261259    0.8363338716073045    0.0932420402413673
     0.9204148471956380    0.3386000370836760    0.0933385224623343
     0.9198364628406314    0.8355394189320083    0.0944159150352243
     0.3310109951264494    0.1660273261026050    0.6122209346319116
     0.3356430029889052    0.6703863367919308    0.6083674727279776
     0.8348995460567232    0.1699398746639557    0.6100179697393974
     0.8380105198669633    0.6699116070996941    0.6074498313096257
     0.2613443476865401    0.0222030520869821    0.8462105668246084
     0.2656283254465334    0.5256453086026146    0.8414958306554462
     0.7633800891041377    0.0259106296896102    0.8430007096869429
     0.7648656418063076    0.5249015749326376    0.8410157855602982
     0.2489813123313835    0.2301456561928543    0.8498487622393268
     0.2622478055050654    0.7411596003159474    0.8366631916528411
     0.7617666329032031    0.2423503868299397    0.8372303473807513
     0.7605635219607176    0.7393856835694931    0.8350005645401813
     0.3183355431857905    0.4053096895659584    0.5961167016727490
     0.3226540727204429    0.9070297151043787    0.5983338859858768
     0.8284798820266936    0.4082525074913483    0.5950916854877217
     0.8211700970271544    0.9046800015312707    0.5974770261281859
     0.2307034272480072    0.2486279879036843    0.3503317829784563
     0.2335963911136192    0.7514196232116195    0.3478583436951292
     0.7337115277293563    0.2507567238393856    0.3473693736221328
     0.7331911795114379    0.7503831319514459    0.3465838499212705
     0.0184670692213882    0.2594314045686970    0.3382561367779104
     0.0198102744117385    0.7587779744553170    0.3390020449588006
     0.5206489049393138    0.2610652712866456    0.3391955815156306
     0.5201560963853427    0.7595766671638422    0.3370648509961803
     0.0801677116555640    0.1614226690046014    0.5992307572752577
     0.0830805419757419    0.6626021815849994    0.5962156598923539
     0.5828822867839305    0.1649849381619479    0.5973576706742815
     0.5825429556497175    0.6610426301056508    0.5926072463913467
     0.9933585399221688    0.9933509637235285    0.8119647021335741
     0.9989487208881180    0.4972137698890732    0.8103358543626753
     0.4972181564388625    0.9971997235625492    0.8100131134456888
     0.5004188996761755    0.4987184359047074    0.8053494260102335
     0.9961056678688774    0.9973511578814832    0.3114694268646410
     0.9983012243350259    0.4986514131932966    0.3105586666138087
     0.4979203549889506    0.9978569767241499    0.3112194469137953
     0.4990704794086199    0.4990195131824625    0.3109994611568085
     0.1680044649986135    0.3341938989925304    0.1078809963459983
     0.1684639938355981    0.8351292931396126    0.1073521806418028
     0.6679146154436454    0.3339831390505986    0.1063634989929284
     0.6683816785090505    0.8348640693613141    0.1049273909273788
     0.4800323734321559    0.2475330220775850    0.8493658864241906
     0.4851491075841712    0.7533464018688079    0.8440129321208110
     0.9832741560142254    0.2527502958935369    0.8467133244711853
     0.9838263556658305    0.7520807029766744    0.8451587129119629
     0.0801749072341218    0.4149376093354897    0.6025889390260488
     0.0801923243335997    0.9144503014338071    0.6036148561745899
     0.5962589675298354    0.4163328283425591    0.5980514507908503
     0.5807972779888725    0.9158885258282261    0.6023893868590183
     0.2374664522902660    0.4755335623299877    0.3454206152463706
     0.2357667178868453    0.9757114030099787    0.3480536062135993
     0.7409659518923725    0.4773349596560341    0.3421647986028890
     0.7371479639568710    0.9757810970454527    0.3454353327736109
     0.4186608723899015    0.0947328072248260    0.0984776733819304
     0.4198740416637839    0.5960620777787278    0.0948201334378137
     0.9186541841824930    0.0960951619933323    0.0957034809742690
     0.9197564509921428    0.5954524971410933    0.0946715536998667

  0.00000000E+00  0.00000000E+00  0.00000000E+00
  0.00000000E+00  0.00000000E+00  0.00000000E+00
  0.00000000E+00  0.00000000E+00  0.00000000E+00
  0.00000000E+00  0.00000000E+00  0.00000000E+00
  0.00000000E+00  0.00000000E+00  0.00000000E+00
  0.00000000E+00  0.00000000E+00  0.00000000E+00
  0.00000000E+00  0.00000000E+00  0.00000000E+00
  0.00000000E+00  0.00000000E+00  0.00000000E+00
  0.00000000E+00  0.00000000E+00  0.00000000E+00
  0.00000000E+00  0.00000000E+00  0.00000000E+00
  0.00000000E+00  0.00000000E+00  0.00000000E+00
  0.00000000E+00  0.00000000E+00  0.00000000E+00
  0.00000000E+00  0.00000000E+00  0.00000000E+00
  0.00000000E+00  0.00000000E+00  0.00000000E+00
  0.00000000E+00  0.00000000E+00  0.00000000E+00
  0.00000000E+00  0.00000000E+00  0.00000000E+00
  0.00000000E+00  0.00000000E+00  0.00000000E+00
  0.00000000E+00  0.00000000E+00  0.00000000E+00
  0.00000000E+00  0.00000000E+00  0.00000000E+00
  0.00000000E+00  0.00000000E+00  0.00000000E+00
  0.00000000E+00  0.00000000E+00  0.00000000E+00
  0.00000000E+00  0.00000000E+00  0.00000000E+00
  0.00000000E+00  0.00000000E+00  0.00000000E+00
  0.00000000E+00  0.00000000E+00  0.00000000E+00
  0.00000000E+00  0.00000000E+00  0.00000000E+00
  0.00000000E+00  0.00000000E+00  0.00000000E+00
  0.00000000E+00  0.00000000E+00  0.00000000E+00
  0.00000000E+00  0.00000000E+00  0.00000000E+00
  0.00000000E+00  0.00000000E+00  0.00000000E+00
  0.00000000E+00  0.00000000E+00  0.00000000E+00
  0.00000000E+00  0.00000000E+00  0.00000000E+00
  0.00000000E+00  0.00000000E+00  0.00000000E+00
  0.00000000E+00  0.00000000E+00  0.00000000E+00
  0.00000000E+00  0.00000000E+00  0.00000000E+00
  0.00000000E+00  0.00000000E+00  0.00000000E+00
  0.00000000E+00  0.00000000E+00  0.00000000E+00
  0.00000000E+00  0.00000000E+00  0.00000000E+00
  0.00000000E+00  0.00000000E+00  0.00000000E+00
  0.00000000E+00  0.00000000E+00  0.00000000E+00
  0.00000000E+00  0.00000000E+00  0.00000000E+00
  0.00000000E+00  0.00000000E+00  0.00000000E+00
  0.00000000E+00  0.00000000E+00  0.00000000E+00
  0.00000000E+00  0.00000000E+00  0.00000000E+00
  0.00000000E+00  0.00000000E+00  0.00000000E+00
  0.00000000E+00  0.00000000E+00  0.00000000E+00
  0.00000000E+00  0.00000000E+00  0.00000000E+00
  0.00000000E+00  0.00000000E+00  0.00000000E+00
  0.00000000E+00  0.00000000E+00  0.00000000E+00
  0.00000000E+00  0.00000000E+00  0.00000000E+00
  0.00000000E+00  0.00000000E+00  0.00000000E+00
  0.00000000E+00  0.00000000E+00  0.00000000E+00
  0.00000000E+00  0.00000000E+00  0.00000000E+00
  0.00000000E+00  0.00000000E+00  0.00000000E+00
  0.00000000E+00  0.00000000E+00  0.00000000E+00
  0.00000000E+00  0.00000000E+00  0.00000000E+00
  0.00000000E+00  0.00000000E+00  0.00000000E+00
  0.00000000E+00  0.00000000E+00  0.00000000E+00
  0.00000000E+00  0.00000000E+00  0.00000000E+00
  0.00000000E+00  0.00000000E+00  0.00000000E+00
  0.00000000E+00  0.00000000E+00  0.00000000E+00
  0.00000000E+00  0.00000000E+00  0.00000000E+00
  0.00000000E+00  0.00000000E+00  0.00000000E+00
  0.00000000E+00  0.00000000E+00  0.00000000E+00
  0.00000000E+00  0.00000000E+00  0.00000000E+00
  0.00000000E+00  0.00000000E+00  0.00000000E+00
  0.00000000E+00  0.00000000E+00  0.00000000E+00
  0.00000000E+00  0.00000000E+00  0.00000000E+00
  0.00000000E+00  0.00000000E+00  0.00000000E+00
  0.00000000E+00  0.00000000E+00  0.00000000E+00
  0.00000000E+00  0.00000000E+00  0.00000000E+00
  0.00000000E+00  0.00000000E+00  0.00000000E+00
  0.00000000E+00  0.00000000E+00  0.00000000E+00
  0.00000000E+00  0.00000000E+00  0.00000000E+00
  0.00000000E+00  0.00000000E+00  0.00000000E+00
  0.00000000E+00  0.00000000E+00  0.00000000E+00
  0.00000000E+00  0.00000000E+00  0.00000000E+00
  0.00000000E+00  0.00000000E+00  0.00000000E+00
  0.00000000E+00  0.00000000E+00  0.00000000E+00
  0.00000000E+00  0.00000000E+00  0.00000000E+00
  0.00000000E+00  0.00000000E+00  0.00000000E+00
  0.00000000E+00  0.00000000E+00  0.00000000E+00
  0.00000000E+00  0.00000000E+00  0.00000000E+00
  0.00000000E+00  0.00000000E+00  0.00000000E+00
  0.00000000E+00  0.00000000E+00  0.00000000E+00
  0.00000000E+00  0.00000000E+00  0.00000000E+00
  0.00000000E+00  0.00000000E+00  0.00000000E+00
  0.00000000E+00  0.00000000E+00  0.00000000E+00
  0.00000000E+00  0.00000000E+00  0.00000000E+00
  0.00000000E+00  0.00000000E+00  0.00000000E+00
  0.00000000E+00  0.00000000E+00  0.00000000E+00
  0.00000000E+00  0.00000000E+00  0.00000000E+00
  0.00000000E+00  0.00000000E+00  0.00000000E+00
  0.00000000E+00  0.00000000E+00  0.00000000E+00
  0.00000000E+00  0.00000000E+00  0.00000000E+00
  0.00000000E+00  0.00000000E+00  0.00000000E+00
  0.00000000E+00  0.00000000E+00  0.00000000E+00
  0.00000000E+00  0.00000000E+00  0.00000000E+00
  0.00000000E+00  0.00000000E+00  0.00000000E+00
  0.00000000E+00  0.00000000E+00  0.00000000E+00
  0.00000000E+00  0.00000000E+00  0.00000000E+00
  0.00000000E+00  0.00000000E+00  0.00000000E+00
  0.00000000E+00  0.00000000E+00  0.00000000E+00
  0.00000000E+00  0.00000000E+00  0.00000000E+00
  0.00000000E+00  0.00000000E+00  0.00000000E+00
