System                                  
   1.0000000000000000     
     6.6384457288433181    0.0138575970531895   -0.5819091763406914
     4.8135593250980406    4.5715218737344312   -0.5819077614108956
    -0.6407988230809908   -0.2565730102114803    5.4887274360241047
  Li              V               F             
     4     2    10
Direct
     0.8110400779268907    0.2774727458343486    0.0434486898391846
     0.7225272016853852    0.1889602931349546    0.4565512922808735
     0.2774728139189400    0.8110396812959003    0.5434487478076865
     0.1889599671115803    0.7225272682098297    0.9565512957218189
     0.0000001079133593    0.4999998821465226    0.5000000348468683
     0.4999998968802491   -0.0000000282298209   -0.0000000652940453
     0.0456728823323504    0.9543270624895235    0.2500001061479717
     0.6911921126653254    0.5179381255710755    0.4493965834616490
     0.8717963295938597    0.7225045730796944    0.8381559773653410
     0.7225046692312521    0.8717961253203025    0.3381559046719941
     0.5179385577042065    0.6911918845677069    0.9493970955615193
     0.4820614593101907    0.3088081593327452    0.0506029064013637
     0.2774953605283391    0.1282038867558581    0.6618441376882828
     0.9543271111899511    0.0456729626249579    0.7499998917835804
     0.1282036295534857    0.2774954837759014    0.1618440086259327
     0.3088078224546278    0.4820618940905072    0.5506033930899938

  0.00000000E+00  0.00000000E+00  0.00000000E+00
  0.00000000E+00  0.00000000E+00  0.00000000E+00
  0.00000000E+00  0.00000000E+00  0.00000000E+00
  0.00000000E+00  0.00000000E+00  0.00000000E+00
  0.00000000E+00  0.00000000E+00  0.00000000E+00
  0.00000000E+00  0.00000000E+00  0.00000000E+00
  0.00000000E+00  0.00000000E+00  0.00000000E+00
  0.00000000E+00  0.00000000E+00  0.00000000E+00
  0.00000000E+00  0.00000000E+00  0.00000000E+00
  0.00000000E+00  0.00000000E+00  0.00000000E+00
  0.00000000E+00  0.00000000E+00  0.00000000E+00
  0.00000000E+00  0.00000000E+00  0.00000000E+00
  0.00000000E+00  0.00000000E+00  0.00000000E+00
  0.00000000E+00  0.00000000E+00  0.00000000E+00
  0.00000000E+00  0.00000000E+00  0.00000000E+00
  0.00000000E+00  0.00000000E+00  0.00000000E+00
