System                                  
   1.0000000000000000     
    11.3414376695480694   -0.0647836135991604   -0.2488026780888000
    -5.6337010728795018    9.9288513910399363    0.0710431474792025
     0.0222419509143507    0.0786910209071783    9.2036924770866690
  Li              Mn              Co              Ni              O             
     9    12     8    12    64
Direct
     0.1723437802932423    0.3405168275609876    0.8990638747402095
     0.1720615493434150    0.8366946236774696    0.8978874037657942
     0.6696502605591984    0.3388049015267585    0.8979591257250776
     0.6727788074319591    0.8393128293420917    0.8947454667394616
     0.9952725492866193    0.9960989465978090    0.4937964050551710
     0.3348895406706390    0.1626775756788109    0.4055647209093664
     0.3344464952725758    0.6635940143587766    0.4005978700379816
     0.8320619213003051    0.1627156117603542    0.4021770788291707
     0.8329991149349587    0.6630060671033365    0.3994493973209324
     0.0841012523306593    0.4179646264345117    0.2111624240840719
     0.0846761144619257    0.9158866081531710    0.2061969001666690
     0.5845485429850021    0.4178987137816272    0.2104199775050043
     0.5844739025843443    0.9177769785714222    0.2094088349979188
     0.0846130953250385    0.1692385734878426    0.2072657712275452
     0.0844616010610169    0.6669712318159374    0.2111346578649534
     0.5839093038496200    0.1676933284825467    0.2118217276423773
     0.5848000295840076    0.6678590608157826    0.2094814201947363
     0.1653215019377915    0.0819271320383578    0.7250795907072324
     0.1665475237210763    0.5808506301130193    0.7087893259262593
     0.6637961268883845    0.0814461644583932    0.7106116160118990
     0.6669748931587188    0.5801309661919590    0.7048531224644011
     0.1670756765871662    0.3280424861963328    0.4850916605068126
     0.1685424788112385    0.8281627450546416    0.4852147000080829
     0.6727882405564627    0.3313375076198254    0.4853496217807206
     0.6649086423606611    0.8274462805791393    0.4812011904516468
     0.3390271955718123    0.1712976982196788    0.9854662016065938
     0.3423568661708878    0.6735578729499522    0.9821977152611244
     0.8391058190351579    0.1742307941926011    0.9844020346870197
     0.8403989892238966    0.6711217970870724    0.9826665606615537
     0.4163974844448001    0.0851089276435533    0.7133309184552228
     0.4200858249461918    0.5867705166495059    0.7091483812833917
     0.9152809419610893    0.0840585141986779    0.7184342446958289
     0.9202690647730958    0.5867725812971361    0.7100217244953795
     0.3333165743067386    0.4155132663599959    0.2105445725268439
     0.3336201178769121    0.9158291588918700    0.2086992843830524
     0.8329716452042423    0.4151684618101491    0.2095324537245034
     0.8304578818404049    0.9143784456213204    0.2041229410962397
     0.4127461395998918    0.3313491420039917    0.7103840553268838
     0.4150262009358374    0.8319611415283966    0.7113637046895358
     0.9151412446228301    0.3310503655350585    0.7121329534974311
     0.9138639831274078    0.8307679533256745    0.7175139931215671
     0.1711251764549598    0.0862174351680078    0.1061471994321877
     0.1713913964683815    0.5868379296334935    0.1064220812932011
     0.6701646041168413    0.0880291629600956    0.1033869847376000
     0.6706254194247281    0.5860314519192680    0.1034799699121052
     0.4207286300117679    0.3386669788485053    0.0956324136260649
     0.4209482492450546    0.8372219643772298    0.0916468912980844
     0.9205237335130141    0.3389027820161073    0.0937789677673086
     0.9195985352483093    0.8344461973442860    0.0913820560522339
     0.3293933346180640    0.1649766744760111    0.6145113256062550
     0.3360553611709092    0.6703600927989870    0.6082200399748164
     0.8347897635793836    0.1673796772969474    0.6118140520710669
     0.8382776672789204    0.6722970189272959    0.6087241923632042
     0.2614531630798431    0.0221881056307863    0.8498908960041160
     0.2654979775239854    0.5254237493498338    0.8408908245482807
     0.7608461328597069    0.0254477063880069    0.8464663633233015
     0.7649204414016191    0.5243473092699521    0.8400231902045512
     0.2499037039478107    0.2318305021506288    0.8528728414212183
     0.2613255270848799    0.7402359936879770    0.8362654777807379
     0.7616998386985873    0.2429396976941834    0.8370094060486132
     0.7598062073062315    0.7384075802815544    0.8375744773045617
     0.3185462655952191    0.4046232609076236    0.5954572919437001
     0.3216478096020249    0.9065676136320029    0.5982512967087689
     0.8289748752874553    0.4079220436850817    0.5946853841067228
     0.8330455659388274    0.9104904491760036    0.5962909848238737
     0.2293730435924131    0.2465922724359495    0.3491759929364470
     0.2332190311061240    0.7509146478133486    0.3478840249329501
     0.7336468090257587    0.2502704577983834    0.3474637341384078
     0.7332633029404220    0.7516416694304001    0.3448091401416880
     0.0184166774691406    0.2581189143964050    0.3373152393952965
     0.0197458161318947    0.7599894489048903    0.3376269569034396
     0.5209383740029960    0.2610857871331118    0.3396847265229144
     0.5184389593329209    0.7591512370358066    0.3348294048108992
     0.0800958669106894    0.1598275515264489    0.6013854921046632
     0.0828549894547259    0.6627942697755133    0.5952667761030593
     0.5832607501422968    0.1649967320192839    0.5972711306171730
     0.5836790653159474    0.6632521268881443    0.5974592736572614
     0.9931731751506391    0.9944053760138558    0.8191319125134585
     0.9989140985754632    0.4966693099165971    0.8092879250762069
     0.4963847875790671    0.9970701955967438    0.8107439043535605
     0.5002445423524376    0.4981414824649483    0.8061363016887387
     0.9965206466226659    0.9974729417576080    0.3015640145982071
     0.9982827851011665    0.4985412466130253    0.3114667390289158
     0.4981672297593719    0.9978612207617064    0.3109873639983228
     0.4992878673707686    0.4993398982433123    0.3116641427600935
     0.1685834093069272    0.3356425954544736    0.1062926364892301
     0.1690399173717519    0.8339123905382599    0.1053315887770366
     0.6681806707462026    0.3344000494063567    0.1065128954906648
     0.6671873978165882    0.8342066137972299    0.1031583052285108
     0.4805244877893122    0.2482201082387907    0.8497607655407124
     0.4843286996257428    0.7530306784606566    0.8444657783950074
     0.9823791579399417    0.2515820796250237    0.8471105377933695
     0.9835003969478809    0.7503533855408880    0.8474515636219292
     0.0804409747219629    0.4142990923275762    0.6020677953489832
     0.0795631837127108    0.9165384977159700    0.6065593539650812
     0.5964899662610704    0.4167782904153968    0.5982904544077368
     0.5813634269083071    0.9154705334870438    0.6055550585571217
     0.2376618549076701    0.4752215596458311    0.3456174543324867
     0.2351876593071171    0.9755523189041002    0.3460581907946510
     0.7410964927016329    0.4772082549164435    0.3428083093612542
     0.7379371502011480    0.9764095475857822    0.3431776772307720
     0.4196100639541134    0.0959568343436201    0.0985981501284754
     0.4194767299983196    0.5962064955596925    0.0941221295868514
     0.9184099593102402    0.0967517236621653    0.0932296674409994
     0.9195874537691126    0.5947456541242158    0.0955251423349819

  0.00000000E+00  0.00000000E+00  0.00000000E+00
  0.00000000E+00  0.00000000E+00  0.00000000E+00
  0.00000000E+00  0.00000000E+00  0.00000000E+00
  0.00000000E+00  0.00000000E+00  0.00000000E+00
  0.00000000E+00  0.00000000E+00  0.00000000E+00
  0.00000000E+00  0.00000000E+00  0.00000000E+00
  0.00000000E+00  0.00000000E+00  0.00000000E+00
  0.00000000E+00  0.00000000E+00  0.00000000E+00
  0.00000000E+00  0.00000000E+00  0.00000000E+00
  0.00000000E+00  0.00000000E+00  0.00000000E+00
  0.00000000E+00  0.00000000E+00  0.00000000E+00
  0.00000000E+00  0.00000000E+00  0.00000000E+00
  0.00000000E+00  0.00000000E+00  0.00000000E+00
  0.00000000E+00  0.00000000E+00  0.00000000E+00
  0.00000000E+00  0.00000000E+00  0.00000000E+00
  0.00000000E+00  0.00000000E+00  0.00000000E+00
  0.00000000E+00  0.00000000E+00  0.00000000E+00
  0.00000000E+00  0.00000000E+00  0.00000000E+00
  0.00000000E+00  0.00000000E+00  0.00000000E+00
  0.00000000E+00  0.00000000E+00  0.00000000E+00
  0.00000000E+00  0.00000000E+00  0.00000000E+00
  0.00000000E+00  0.00000000E+00  0.00000000E+00
  0.00000000E+00  0.00000000E+00  0.00000000E+00
  0.00000000E+00  0.00000000E+00  0.00000000E+00
  0.00000000E+00  0.00000000E+00  0.00000000E+00
  0.00000000E+00  0.00000000E+00  0.00000000E+00
  0.00000000E+00  0.00000000E+00  0.00000000E+00
  0.00000000E+00  0.00000000E+00  0.00000000E+00
  0.00000000E+00  0.00000000E+00  0.00000000E+00
  0.00000000E+00  0.00000000E+00  0.00000000E+00
  0.00000000E+00  0.00000000E+00  0.00000000E+00
  0.00000000E+00  0.00000000E+00  0.00000000E+00
  0.00000000E+00  0.00000000E+00  0.00000000E+00
  0.00000000E+00  0.00000000E+00  0.00000000E+00
  0.00000000E+00  0.00000000E+00  0.00000000E+00
  0.00000000E+00  0.00000000E+00  0.00000000E+00
  0.00000000E+00  0.00000000E+00  0.00000000E+00
  0.00000000E+00  0.00000000E+00  0.00000000E+00
  0.00000000E+00  0.00000000E+00  0.00000000E+00
  0.00000000E+00  0.00000000E+00  0.00000000E+00
  0.00000000E+00  0.00000000E+00  0.00000000E+00
  0.00000000E+00  0.00000000E+00  0.00000000E+00
  0.00000000E+00  0.00000000E+00  0.00000000E+00
  0.00000000E+00  0.00000000E+00  0.00000000E+00
  0.00000000E+00  0.00000000E+00  0.00000000E+00
  0.00000000E+00  0.00000000E+00  0.00000000E+00
  0.00000000E+00  0.00000000E+00  0.00000000E+00
  0.00000000E+00  0.00000000E+00  0.00000000E+00
  0.00000000E+00  0.00000000E+00  0.00000000E+00
  0.00000000E+00  0.00000000E+00  0.00000000E+00
  0.00000000E+00  0.00000000E+00  0.00000000E+00
  0.00000000E+00  0.00000000E+00  0.00000000E+00
  0.00000000E+00  0.00000000E+00  0.00000000E+00
  0.00000000E+00  0.00000000E+00  0.00000000E+00
  0.00000000E+00  0.00000000E+00  0.00000000E+00
  0.00000000E+00  0.00000000E+00  0.00000000E+00
  0.00000000E+00  0.00000000E+00  0.00000000E+00
  0.00000000E+00  0.00000000E+00  0.00000000E+00
  0.00000000E+00  0.00000000E+00  0.00000000E+00
  0.00000000E+00  0.00000000E+00  0.00000000E+00
  0.00000000E+00  0.00000000E+00  0.00000000E+00
  0.00000000E+00  0.00000000E+00  0.00000000E+00
  0.00000000E+00  0.00000000E+00  0.00000000E+00
  0.00000000E+00  0.00000000E+00  0.00000000E+00
  0.00000000E+00  0.00000000E+00  0.00000000E+00
  0.00000000E+00  0.00000000E+00  0.00000000E+00
  0.00000000E+00  0.00000000E+00  0.00000000E+00
  0.00000000E+00  0.00000000E+00  0.00000000E+00
  0.00000000E+00  0.00000000E+00  0.00000000E+00
  0.00000000E+00  0.00000000E+00  0.00000000E+00
  0.00000000E+00  0.00000000E+00  0.00000000E+00
  0.00000000E+00  0.00000000E+00  0.00000000E+00
  0.00000000E+00  0.00000000E+00  0.00000000E+00
  0.00000000E+00  0.00000000E+00  0.00000000E+00
  0.00000000E+00  0.00000000E+00  0.00000000E+00
  0.00000000E+00  0.00000000E+00  0.00000000E+00
  0.00000000E+00  0.00000000E+00  0.00000000E+00
  0.00000000E+00  0.00000000E+00  0.00000000E+00
  0.00000000E+00  0.00000000E+00  0.00000000E+00
  0.00000000E+00  0.00000000E+00  0.00000000E+00
  0.00000000E+00  0.00000000E+00  0.00000000E+00
  0.00000000E+00  0.00000000E+00  0.00000000E+00
  0.00000000E+00  0.00000000E+00  0.00000000E+00
  0.00000000E+00  0.00000000E+00  0.00000000E+00
  0.00000000E+00  0.00000000E+00  0.00000000E+00
  0.00000000E+00  0.00000000E+00  0.00000000E+00
  0.00000000E+00  0.00000000E+00  0.00000000E+00
  0.00000000E+00  0.00000000E+00  0.00000000E+00
  0.00000000E+00  0.00000000E+00  0.00000000E+00
  0.00000000E+00  0.00000000E+00  0.00000000E+00
  0.00000000E+00  0.00000000E+00  0.00000000E+00
  0.00000000E+00  0.00000000E+00  0.00000000E+00
  0.00000000E+00  0.00000000E+00  0.00000000E+00
  0.00000000E+00  0.00000000E+00  0.00000000E+00
  0.00000000E+00  0.00000000E+00  0.00000000E+00
  0.00000000E+00  0.00000000E+00  0.00000000E+00
  0.00000000E+00  0.00000000E+00  0.00000000E+00
  0.00000000E+00  0.00000000E+00  0.00000000E+00
  0.00000000E+00  0.00000000E+00  0.00000000E+00
  0.00000000E+00  0.00000000E+00  0.00000000E+00
  0.00000000E+00  0.00000000E+00  0.00000000E+00
  0.00000000E+00  0.00000000E+00  0.00000000E+00
  0.00000000E+00  0.00000000E+00  0.00000000E+00
  0.00000000E+00  0.00000000E+00  0.00000000E+00
  0.00000000E+00  0.00000000E+00  0.00000000E+00
