System                                  
   1.0000000000000000     
     5.4118274680287390    0.0178537477511527    1.6693190138232501
    -1.6313099983773762    6.4686689083410096   -1.6320207146256733
    -0.0051527093290851    0.0146689961389253    6.8660589616720316
  Li              V               O             
     3     5    12
Direct
     0.7495992063552909    0.0892486736799994    0.0899278104483308
     0.2499162809554917    0.2900494648528424    0.2905092984254392
     0.7463368713721514    0.7233292058562717    0.7249271883887792
     0.7281854046032820    0.1802285366013367    0.6234740112927039
     0.7716245122049231    0.6234918151785700    0.1807783638058433
     0.2495967061002340    0.9287035919507930    0.9286993213177575
     0.1970495012002760    0.3847708179459447    0.8414471391252658
     0.3019762179760779    0.8411171222160982    0.3848400507589565
     0.4408667853838906    0.5940011389426685    0.2990482698198058
     0.0593888945613080    0.2985621408163475    0.5939181274563328
     0.9477062277772430    0.6831207498281336    0.3660072755140716
     0.5518429752194169    0.3652277871009757    0.6831829435825216
     0.3302959071035894    0.0052404301274426    0.2055996148965866
     0.8621138697155970    0.8023751005721463    0.0137405160599409
     0.8265306242137712    0.3945525130079237    0.0253838169213808
     0.6739703017877745    0.0259076512283460    0.3939829025365176
     0.3113201013108954    0.6520944248702533    0.8933818360422081
     0.6388914366481412    0.0137216020827731    0.8025622497798433
     0.1713468806163964    0.2079876869191606    0.0061772387188660
     0.1914402948942533    0.8962685462219669    0.6524090251088767

  0.00000000E+00  0.00000000E+00  0.00000000E+00
  0.00000000E+00  0.00000000E+00  0.00000000E+00
  0.00000000E+00  0.00000000E+00  0.00000000E+00
  0.00000000E+00  0.00000000E+00  0.00000000E+00
  0.00000000E+00  0.00000000E+00  0.00000000E+00
  0.00000000E+00  0.00000000E+00  0.00000000E+00
  0.00000000E+00  0.00000000E+00  0.00000000E+00
  0.00000000E+00  0.00000000E+00  0.00000000E+00
  0.00000000E+00  0.00000000E+00  0.00000000E+00
  0.00000000E+00  0.00000000E+00  0.00000000E+00
  0.00000000E+00  0.00000000E+00  0.00000000E+00
  0.00000000E+00  0.00000000E+00  0.00000000E+00
  0.00000000E+00  0.00000000E+00  0.00000000E+00
  0.00000000E+00  0.00000000E+00  0.00000000E+00
  0.00000000E+00  0.00000000E+00  0.00000000E+00
  0.00000000E+00  0.00000000E+00  0.00000000E+00
  0.00000000E+00  0.00000000E+00  0.00000000E+00
  0.00000000E+00  0.00000000E+00  0.00000000E+00
  0.00000000E+00  0.00000000E+00  0.00000000E+00
  0.00000000E+00  0.00000000E+00  0.00000000E+00
