System
1.0
11.39482 -0.10862 -0.25272
-5.69805 9.99015 0.09274
0.02188 0.09758 9.25735
Li Mn Co Ni O 
15 12 8 12 64 
direct
0.17151349945931452 0.8394430719568925 0.8931736911342907 a
0.6715131710439878 0.33944324093260125 0.8931767894275451 a
0.6715137327803612 0.839443913586943 0.8931780755009185 a
0.4994020372773949 0.9985651959762536 0.9948640665225165 a
0.49940175293905326 0.4985647874302408 0.9948651141251809 a
0.9994151530586044 0.9985750074718865 0.994867231461746 a
0.9994129787756917 0.4985748511214498 0.9948648527040705 a
0.48989244425367967 0.4924128224827863 0.4961357734308645 a
0.4898950778781725 0.9924187788635699 0.49613597642910984 a
0.9898936579382988 0.49241300452989933 0.49613300355065343 a
0.9898951676398603 0.9924192391459187 0.4961347929179457 a
0.3305676064974585 0.1641930587411705 0.3988231558213713 a
0.33056909215331615 0.6641976166604554 0.39882706205105534 a
0.8305674964722168 0.16418570362740592 0.39882761730840804 a
0.8305688384808995 0.6641889867724111 0.39883057599880145 a
0.0852490058957224 0.41493726056182584 0.21454393804892946 a
0.08524874386589502 0.9149369681921813 0.2145427472190619 a
0.5852472347952491 0.4149327638335735 0.21454052179411268 a
0.5852478446613649 0.9149323104218775 0.21454034632977786 a
0.0861496279794374 0.1705634106612675 0.21291237297380458 a
0.08614887867454855 0.6705637656741492 0.21291117564899295 a
0.5861536563342374 0.1705580383597451 0.21291682953945498 a
0.5861528153922745 0.6705593737479266 0.21291911634771507 a
0.1686715960405753 0.08303334316325399 0.7132038136206593 a
0.16867290274951277 0.5830331987602259 0.7132028725504717 a
0.6686722518324154 0.08303290493276372 0.7132058406237132 a
0.6686723945615306 0.5830322847150718 0.7132069106266199 a
0.1651580631245057 0.3268509957292872 0.48351647385921087 a
0.16515761598560677 0.8268505274876095 0.48351537342864903 a
0.6651578891535593 0.3268464153976737 0.483516762200504 a
0.6651570834786402 0.8268466808650143 0.4835156975187846 a
0.34057921550686127 0.1727773285858097 0.9803089350198779 a
0.3405792802749497 0.6727778074158163 0.9803081783942033 a
0.8405794990580874 0.1727787273552013 0.9803088239328236 a
0.8405798894313942 0.6727799480635251 0.9803086604225137 a
0.4168285155977823 0.0862517293177311 0.7129699697002501 a
0.4168280032377757 0.5862516874320705 0.7129708963885515 a
0.9168298693453663 0.08625213371864171 0.7129710443809224 a
0.9168278665797899 0.58625175527445 0.712971548584235 a
0.3320536967525304 0.4178213771428767 0.2117886698523187 a
0.3320538175282539 0.9178217534508062 0.21178777679681107 a
0.8320568995928194 0.4178186753400179 0.2117873804971055 a
0.8320571847251059 0.9178187404662216 0.2117876139638294 a
0.41298892752892397 0.3295625274024159 0.7142726690272984 a
0.41299034629302084 0.8295660678011101 0.7142724184022015 a
0.9129896630655159 0.3295635552525746 0.7142727205202982 a
0.9129909564067887 0.8295665511178589 0.7142727595706865 a
0.1675983664250999 0.0847983706388896 0.10372861311637609 a
0.16759795427187074 0.5847975559996392 0.1037279680032298 a
0.667598718011079 0.0847946621898874 0.10372806035887079 a
0.6675965373831628 0.5847947536081026 0.103728736611243 a
0.4233067533752354 0.33525061634984005 0.09564481894454319 a
0.4233064481382687 0.8352508450244306 0.09564510876877208 a
0.9233049156835867 0.33525769246705445 0.09564404971121439 a
0.9233051232995825 0.8352578402933443 0.09564359048546818 a
0.3347781924330778 0.17026669539748232 0.6110809912515455 a
0.33477729771637527 0.6702658680096232 0.6110815208850933 a
0.8347773915708678 0.17026535564747694 0.6110831603498592 a
0.8347791787405524 0.6702651511102138 0.611085620479946 a
0.26318954540227696 0.0250377427304259 0.843848450787889 a
0.2631901064847236 0.5250382197135239 0.8438483557738127 a
0.7631897144112071 0.025038667402205502 0.8438508068673204 a
0.7631897418464513 0.525038939128422 0.8438524736417369 a
0.26010820760602005 0.2409383759471588 0.8379388958410682 a
0.2601074363615641 0.7409373753789782 0.8379378213297541 a
0.7601061447720463 0.24093756245003004 0.8379387976898759 a
0.760105516934423 0.7409368639416323 0.8379387624076776 a
0.3295876090264589 0.4082806127034881 0.5956728790282639 a
0.3295877166608243 0.9082806382916259 0.5956709428144247 a
0.8295878581328437 0.4082807715097979 0.5956711165352888 a
0.8295889035703972 0.9082802772860966 0.5956713460328444 a
0.23615878620582773 0.2568769361680602 0.3464384966399153 a
0.2361578575219294 0.7568765556170178 0.3464376022944469 a
0.7361502157942065 0.2568614359722876 0.34644690197681666 a
0.7361505076390952 0.7568617432640784 0.3464457100772364 a
0.017234224741664354 0.25680031420757216 0.33854830673678604 a
0.017234149986797096 0.7567999751423629 0.3385470070772397 a
0.517235956828337 0.25679694392683294 0.33854763441559893 a
0.5172355882213486 0.7567973317198705 0.3385480557717219 a
0.0808080736911666 0.1589519919622478 0.5952348276620503 a
0.08080608825311594 0.6589475644548131 0.59523169242972 a
0.5808061885162901 0.158951116860846 0.5952372085023027 a
0.580804026540052 0.6589461067749126 0.5952352154223299 a
0.9972057770818407 0.9960144313003623 0.8058589155065349 a
0.997205324747425 0.4960126357379604 0.8058604644156472 a
0.49720411956877253 0.9960117271881536 0.8058591290122783 a
0.4972042782968892 0.49601090631306705 0.8058607232783835 a
0.999988780971158 0.9995816890359505 0.3072142142930584 a
0.9999887402283925 0.4995818343508238 0.30721345970908154 a
0.49999332022007814 0.9995795021843008 0.30721676051539554 a
0.4999921993915427 0.49957872529015684 0.30721704866016075 a
0.1687976281356145 0.3363351266719692 0.10744710893533808 a
0.1687979998909258 0.836335806958664 0.107445951535504 a
0.6687975959961745 0.3363296722805512 0.10744767734878098 a
0.6687977756166323 0.836329468480376 0.10744719583028378 a
0.4834823042198413 0.25144443051802357 0.8461958648511007 a
0.48348238492686024 0.7514442598857394 0.8461966478464484 a
0.983482005337367 0.2514455427211091 0.8461979000059654 a
0.9834817907184038 0.7514453927192135 0.8461984583668806 a
0.07918419834592925 0.41592428149568167 0.603085192701186 a
0.07918412363434128 0.9159254686034017 0.6030846752816943 a
0.5791840925886373 0.41592350416042834 0.6030857269140336 a
0.5791847473985734 0.9159251346156101 0.6030844664067184 a
0.23380104460552886 0.4778244619342574 0.35141085193885163 a
0.23380039002759442 0.9778231181530048 0.351410697083502 a
0.7338070721011215 0.4778182117780554 0.3514049260561808 a
0.7338073372705369 0.9778172060039684 0.35140464535777755 a
0.42569812398293033 0.089419876847196 0.09196741863834258 a
0.4256968257497384 0.5894194998019346 0.09196728631174748 a
0.9257000086052115 0.0894283950620455 0.0919637019012209 a
0.9257000769612096 0.5894287402422207 0.0919626686608881 a
