System                                  
   1.0000000000000000     
     5.4689199999999998    0.0226100000000000    8.3110300000000006
     2.5059700000000000    4.8610400000000000    8.3110300000000006
     0.0369400000000000    0.0226300000000000    9.9490300000000005
  Li              Co              O             
     5     8    16
Direct
     0.2506837400991415    0.7523151239528482    0.7459864827621652
     0.7455428580994482    0.2507558080500790    0.2546999874403365
     0.7492481221609110    0.2477553928023696    0.7540568190896624
     0.7462514956570605    0.7553023987036844    0.2487085825788794
     0.7444300425673017    0.7544013013676431    0.7508265079698093
     0.0027392399926880    0.0015922696740529    0.0008751513300549
     0.0025491269225313    0.0007892813579336    0.4999112950468053
     0.0028120056921390    0.4985174054784311    0.0008374630801942
     0.0031383737641770    0.4996406129632961    0.4995087775617716
     0.4987248096515610    0.9999243831606820    0.0004714201432010
     0.4984068909616450    0.0002862506468302    0.4991560671284958
     0.4987541047520864    0.4986052847871198    0.9995020512877635
     0.4976057275311354    0.4976253605086251    0.4992713894117100
     0.1259567330649185    0.1398476712534317    0.1333494928054854
     0.1260101368730500    0.1332886651211902    0.6352989423260363
     0.1243043455073565    0.6366444320794906    0.1343827597897284
     0.1252819370358888    0.6322837838439408    0.6409800379682080
     0.6387857775212907    0.1253717001428871    0.1291139255919476
     0.6383857912106536    0.1264161198893793    0.6287010253898114
     0.6424408828922802    0.6259513160553061    0.1248719766197410
     0.6357519408174780    0.6278746486550062    0.6248738640391448
     0.3698793750224708    0.3636161505426541    0.3674457417256976
     0.3729449868678970    0.3720932257106057    0.8609380613891289
     0.3765015512005519    0.8574238680545648    0.3719492736994128
     0.3774384986202970    0.8652010737098658    0.8580314947936352
     0.8599987017536763    0.3760440449311562    0.3703672681491213
     0.8637258297902176    0.3766248236916223    0.8656746491219026
     0.8613688232720756    0.8677704788901901    0.3775664611269187
     0.8710772065703016    0.8675707073436550    0.8740505657404855

  0.00000000E+00  0.00000000E+00  0.00000000E+00
  0.00000000E+00  0.00000000E+00  0.00000000E+00
  0.00000000E+00  0.00000000E+00  0.00000000E+00
  0.00000000E+00  0.00000000E+00  0.00000000E+00
  0.00000000E+00  0.00000000E+00  0.00000000E+00
  0.00000000E+00  0.00000000E+00  0.00000000E+00
  0.00000000E+00  0.00000000E+00  0.00000000E+00
  0.00000000E+00  0.00000000E+00  0.00000000E+00
  0.00000000E+00  0.00000000E+00  0.00000000E+00
  0.00000000E+00  0.00000000E+00  0.00000000E+00
  0.00000000E+00  0.00000000E+00  0.00000000E+00
  0.00000000E+00  0.00000000E+00  0.00000000E+00
  0.00000000E+00  0.00000000E+00  0.00000000E+00
  0.00000000E+00  0.00000000E+00  0.00000000E+00
  0.00000000E+00  0.00000000E+00  0.00000000E+00
  0.00000000E+00  0.00000000E+00  0.00000000E+00
  0.00000000E+00  0.00000000E+00  0.00000000E+00
  0.00000000E+00  0.00000000E+00  0.00000000E+00
  0.00000000E+00  0.00000000E+00  0.00000000E+00
  0.00000000E+00  0.00000000E+00  0.00000000E+00
  0.00000000E+00  0.00000000E+00  0.00000000E+00
  0.00000000E+00  0.00000000E+00  0.00000000E+00
  0.00000000E+00  0.00000000E+00  0.00000000E+00
  0.00000000E+00  0.00000000E+00  0.00000000E+00
  0.00000000E+00  0.00000000E+00  0.00000000E+00
  0.00000000E+00  0.00000000E+00  0.00000000E+00
  0.00000000E+00  0.00000000E+00  0.00000000E+00
  0.00000000E+00  0.00000000E+00  0.00000000E+00
  0.00000000E+00  0.00000000E+00  0.00000000E+00
