NMC-811                                 
   1.00000000000000     
     5.6070395541280327    0.0266192797371020   -0.0102650720422190
    -2.8254278609796786    4.9353673189477236   -0.0204109698186737
    -0.0258703844160775   -0.0740018638358505   14.3020311004963663
   Li   Ni   O    Co   Mn
     5    10    24     1     1
Direct
  0.1791171213654952  0.3347553189836800  0.1657354579909455
  0.1498157154111390  0.8220881627244209  0.1688147283395920
  0.4974554782661877  0.9958217726901845  0.5021896991705412
  0.3362773376058695  0.1735617811121892  0.8304258275002668
  0.8293579108592589  0.6753383763867522  0.8325135757957880
  0.0018147033702372  0.0021326415964430  0.9993280329793364
  0.9994124875673369  0.5006419581579011  0.9957145864498722
  0.5033171770693906  0.0019164290279897  0.9993448316852682
  0.5008204502763596  0.5028551219344133  0.0023223088954067
  0.3321985980259220  0.1613807123220841  0.3342872222616407
  0.3318135325205822  0.6609205473596842  0.3347533660798651
  0.8301593890440515  0.6598866492519516  0.3364293652245421
  0.1674728002198214  0.3380786856665288  0.6653267389112603
  0.1678948071833941  0.8367617637256590  0.6664357317687123
  0.6689837329289474  0.3378987939755774  0.6661300705850028
  0.3320117757998508  0.1646409249581747  0.0695308770316064
  0.3109188736236319  0.6399491291754471  0.0721078712744797
  0.8398103321636363  0.1740975091047998  0.0648828682943936
  0.8473826925234412  0.6817027680895009  0.0686996561272123
  0.0177595661955236  0.0204099452571367  0.2567692449517703
  0.0013736924615971  0.4962058426408726  0.2636541452025410
  0.4878871785678049  0.9856997920226723  0.2641789497462030
  0.4997975280510267  0.4913385014274618  0.2678110873559515
  0.1659771229235272  0.3305979202270604  0.4006415872174277
  0.1653788930296415  0.8325673775827045  0.4012841181899383
  0.6531258276954490  0.2974904584278373  0.4065586328425159
  0.6669002125068670  0.8363581186837657  0.4016614879132696
  0.3328664838723008  0.1656369500606383  0.5993309766182017
  0.3450277514616170  0.6855831897259271  0.5986865542821578
  0.8251783289931506  0.1596345021271672  0.6006160332691441
  0.8315444941185540  0.6693415558275426  0.6013336341258473
  0.0025131529332091  0.9941961865816900  0.7389685068085196
  0.0037620933081919  0.5085234736362284  0.7336123469921858
  0.5006066955100633  0.0115984610559215  0.7354184628403473
  0.5062376596111634  0.5043497616816285  0.7362895542133181
  0.1700562090514290  0.3216916687851337  0.9297867490461061
  0.1675395153123072  0.8396636436297150  0.9292147264885209
  0.6716641108869337  0.3636906544372225  0.9259785352886424
  0.6666440461331233  0.8303810562067616  0.9333732115274672
  0.6686123094277001  0.8377621490958836  0.6691479047236266
  0.8323620031242763  0.1601911026356362  0.3317757209905448
 
  0.00000000E+00  0.00000000E+00  0.00000000E+00
  0.00000000E+00  0.00000000E+00  0.00000000E+00
  0.00000000E+00  0.00000000E+00  0.00000000E+00
  0.00000000E+00  0.00000000E+00  0.00000000E+00
  0.00000000E+00  0.00000000E+00  0.00000000E+00
  0.00000000E+00  0.00000000E+00  0.00000000E+00
  0.00000000E+00  0.00000000E+00  0.00000000E+00
  0.00000000E+00  0.00000000E+00  0.00000000E+00
  0.00000000E+00  0.00000000E+00  0.00000000E+00
  0.00000000E+00  0.00000000E+00  0.00000000E+00
  0.00000000E+00  0.00000000E+00  0.00000000E+00
  0.00000000E+00  0.00000000E+00  0.00000000E+00
  0.00000000E+00  0.00000000E+00  0.00000000E+00
  0.00000000E+00  0.00000000E+00  0.00000000E+00
  0.00000000E+00  0.00000000E+00  0.00000000E+00
  0.00000000E+00  0.00000000E+00  0.00000000E+00
  0.00000000E+00  0.00000000E+00  0.00000000E+00
  0.00000000E+00  0.00000000E+00  0.00000000E+00
  0.00000000E+00  0.00000000E+00  0.00000000E+00
  0.00000000E+00  0.00000000E+00  0.00000000E+00
  0.00000000E+00  0.00000000E+00  0.00000000E+00
  0.00000000E+00  0.00000000E+00  0.00000000E+00
  0.00000000E+00  0.00000000E+00  0.00000000E+00
  0.00000000E+00  0.00000000E+00  0.00000000E+00
  0.00000000E+00  0.00000000E+00  0.00000000E+00
  0.00000000E+00  0.00000000E+00  0.00000000E+00
  0.00000000E+00  0.00000000E+00  0.00000000E+00
  0.00000000E+00  0.00000000E+00  0.00000000E+00
  0.00000000E+00  0.00000000E+00  0.00000000E+00
  0.00000000E+00  0.00000000E+00  0.00000000E+00
  0.00000000E+00  0.00000000E+00  0.00000000E+00
  0.00000000E+00  0.00000000E+00  0.00000000E+00
  0.00000000E+00  0.00000000E+00  0.00000000E+00
  0.00000000E+00  0.00000000E+00  0.00000000E+00
  0.00000000E+00  0.00000000E+00  0.00000000E+00
  0.00000000E+00  0.00000000E+00  0.00000000E+00
  0.00000000E+00  0.00000000E+00  0.00000000E+00
  0.00000000E+00  0.00000000E+00  0.00000000E+00
  0.00000000E+00  0.00000000E+00  0.00000000E+00
  0.00000000E+00  0.00000000E+00  0.00000000E+00
  0.00000000E+00  0.00000000E+00  0.00000000E+00
