NMC-811                                 
   1.00000000000000     
     5.6235633082711596    0.0081205110573052   -0.0074485609733707
    -2.8446874118433274    4.9138379841224689   -0.0022381909688847
    -0.0189724065909390   -0.0174747640111312   14.2789008624136926
   Li   Ni   O    Co   Mn
     4    10    24     1     1
Direct
  0.1762022335899118  0.3354158978944568  0.1654982870487913
  0.1429830906710023  0.8199777377420077  0.1688638069149349
  0.4982003834330087  0.9963827982170059  0.5024381740716564
  0.3437501172173683  0.1774473324205914  0.8313066525710369
  0.0015675451643986  0.0020048747898613  0.9974849074874754
  0.9997729672758311  0.5019457391182627  0.9937134152078286
  0.5035279779620510  0.0017087706216117  0.0006376792638818
  0.5022586875190669  0.5038332875283089  0.0011958079404977
  0.3324337720895159  0.1611869406910316  0.3339872043651653
  0.3321854570804845  0.6609336137884867  0.3343618234146533
  0.8303196393203294  0.6597825751287019  0.3363194609960587
  0.1675159094699623  0.3371910230708082  0.6643212617958838
  0.1664836562933019  0.8360125458202248  0.6683487960992665
  0.6688088018076712  0.3381140702101177  0.6677377914696194
  0.3298380842676352  0.1688463134936313  0.0696315160502081
  0.3142287342958454  0.6470617162587615  0.0701525955532389
  0.8412666893066429  0.1714145005770220  0.0645754899455540
  0.8410603738417777  0.6800177256429976  0.0676570976900805
  0.0172122183895169  0.0194398706997916  0.2568643403219042
  0.0038389007783977  0.4971966374604193  0.2623002184811085
  0.4889095665086032  0.9877001403205341  0.2636103864681587
  0.5010361478108436  0.4938555453311508  0.2671918724486488
  0.1655748088562774  0.3285441191251834  0.4005711971377721
  0.1651026603035533  0.8298511658534977  0.4014223350313415
  0.6539741089861977  0.2979511397850558  0.4059402072049849
  0.6651587453421826  0.8355389525684487  0.4021113144492290
  0.3360006463995262  0.1648635202745368  0.5987380085202645
  0.3395637757774423  0.6779966728363931  0.6013188367292699
  0.8254024238978772  0.1626659184744952  0.6010530890292429
  0.8318313855525190  0.6714968925237770  0.6031297627187016
  0.0104928493073118  0.0117857732265421  0.7350941361907033
  0.0035883882159666  0.5026651905447892  0.7339002582225191
  0.4996011605146577  0.0089247712430094  0.7366232847556162
  0.4958500006189723  0.4963053971234501  0.7347393799367339
  0.1781021790306667  0.3264514180954592  0.9286606986736388
  0.1762280190046610  0.8465511557337919  0.9306380711932718
  0.6645392862306707  0.3462362240240608  0.9302587544860330
  0.6639139292351217  0.8296839998123176  0.9331934090418414
  0.6686405988190103  0.8368134518264725  0.6714924550892434
  0.8325259658142343  0.1602075541029180  0.3314675379839400
 
  0.00000000E+00  0.00000000E+00  0.00000000E+00
  0.00000000E+00  0.00000000E+00  0.00000000E+00
  0.00000000E+00  0.00000000E+00  0.00000000E+00
  0.00000000E+00  0.00000000E+00  0.00000000E+00
  0.00000000E+00  0.00000000E+00  0.00000000E+00
  0.00000000E+00  0.00000000E+00  0.00000000E+00
  0.00000000E+00  0.00000000E+00  0.00000000E+00
  0.00000000E+00  0.00000000E+00  0.00000000E+00
  0.00000000E+00  0.00000000E+00  0.00000000E+00
  0.00000000E+00  0.00000000E+00  0.00000000E+00
  0.00000000E+00  0.00000000E+00  0.00000000E+00
  0.00000000E+00  0.00000000E+00  0.00000000E+00
  0.00000000E+00  0.00000000E+00  0.00000000E+00
  0.00000000E+00  0.00000000E+00  0.00000000E+00
  0.00000000E+00  0.00000000E+00  0.00000000E+00
  0.00000000E+00  0.00000000E+00  0.00000000E+00
  0.00000000E+00  0.00000000E+00  0.00000000E+00
  0.00000000E+00  0.00000000E+00  0.00000000E+00
  0.00000000E+00  0.00000000E+00  0.00000000E+00
  0.00000000E+00  0.00000000E+00  0.00000000E+00
  0.00000000E+00  0.00000000E+00  0.00000000E+00
  0.00000000E+00  0.00000000E+00  0.00000000E+00
  0.00000000E+00  0.00000000E+00  0.00000000E+00
  0.00000000E+00  0.00000000E+00  0.00000000E+00
  0.00000000E+00  0.00000000E+00  0.00000000E+00
  0.00000000E+00  0.00000000E+00  0.00000000E+00
  0.00000000E+00  0.00000000E+00  0.00000000E+00
  0.00000000E+00  0.00000000E+00  0.00000000E+00
  0.00000000E+00  0.00000000E+00  0.00000000E+00
  0.00000000E+00  0.00000000E+00  0.00000000E+00
  0.00000000E+00  0.00000000E+00  0.00000000E+00
  0.00000000E+00  0.00000000E+00  0.00000000E+00
  0.00000000E+00  0.00000000E+00  0.00000000E+00
  0.00000000E+00  0.00000000E+00  0.00000000E+00
  0.00000000E+00  0.00000000E+00  0.00000000E+00
  0.00000000E+00  0.00000000E+00  0.00000000E+00
  0.00000000E+00  0.00000000E+00  0.00000000E+00
  0.00000000E+00  0.00000000E+00  0.00000000E+00
  0.00000000E+00  0.00000000E+00  0.00000000E+00
  0.00000000E+00  0.00000000E+00  0.00000000E+00
