NMC-811                                 
   1.00000000000000     
     5.7221990303588006    0.0316811905308191    0.0342770729323680
    -2.8372059568932411    4.9762345185088144   -0.0436569935674122
     0.0842991813333899   -0.0751462974531300   14.0607686786037167
   Li   Ni   O    Co   Mn
    12    10    24     1     1
Direct
  0.1688327438331508  0.3297999591348769  0.1649956000974704
  0.1724738900928730  0.8356864899746563  0.1685641023512929
  0.6684275302857190  0.3282950689909331  0.1667312563038799
  0.6744149878689062  0.8343130844170392  0.1659318131470724
  0.4993358272026127  0.4984971806403814  0.4978378684548556
  0.5078921095808513  0.9993011041981975  0.5019303444438793
  0.9969612282011784  0.4966867240422818  0.5022244392144358
  0.9997282910326459  0.9971524691624708  0.5000009451390407
  0.3302049158954741  0.1721900425527386  0.8315900433189843
  0.3294466981882578  0.6745722802984955  0.8333745704545003
  0.8273791952776541  0.1632538133827845  0.8336883426787903
  0.8220402903645633  0.6694210268144737  0.8329618710150226
  0.0017861699936815  0.0025817480704490  0.9985961119180445
  0.0012639739857705  0.5027572891627887  0.9988855418058751
  0.5011285691671211  0.0026743144426413  0.9989612062898856
  0.5013485898829873  0.5027735791661624  0.9993335137368465
  0.3356521074965844  0.1653040059586954  0.3339809270959171
  0.3348067161510984  0.6651624716754830  0.3337094404460684
  0.8355654947795120  0.6651379719355267  0.3336226413637411
  0.1635073893270340  0.3322451895703589  0.6673224791810208
  0.1635624523155316  0.8325138125726035  0.6670106329629706
  0.6636600469724609  0.3325928682553302  0.6672321778297751
  0.3626494197311564  0.1894812629080580  0.0739654845617249
  0.3156741528958645  0.6417251702349061  0.0747750894443694
  0.8159648472122710  0.1424256924940673  0.0729483376721125
  0.8638808950355965  0.6898229393478530  0.0738692614392500
  0.0000972931502789  0.0156002592876478  0.2525250341785849
  0.9840111380950635  0.4844570927919453  0.2575149055000240
  0.5186358892067582  0.0042198446142950  0.2557057801750228
  0.5135404255297659  0.4989087064788484  0.2626055426004800
  0.1527692933280977  0.3266093884934385  0.4123132742887789
  0.1571918333802295  0.8317705639268991  0.4054853987780477
  0.6721215202584103  0.3149348765576293  0.4155830319394658
  0.6863859407107992  0.8449675975587739  0.4092478560211913
  0.3303809922662974  0.1630895489381796  0.5981038926628093
  0.3451754272436531  0.6910077875637961  0.5914615435012331
  0.8446418524818724  0.1494285752078169  0.5935252615253497
  0.8042469018143871  0.6488083906756459  0.5920817242046146
  0.9813343655903068  0.9728764837462701  0.7427153165962812
  0.9973686652008895  0.5026726219504893  0.7361923532237752
  0.5222348744487976  0.0160868429710899  0.7426919237219708
  0.4810659252647246  0.5128796251583418  0.7423076755828479
  0.1393085475006040  0.3156289924761804  0.9233087084308679
  0.1876536701568432  0.8629607085345264  0.9234008292158546
  0.6860914657080085  0.3635188087600693  0.9235198423862067
  0.6389806633977434  0.8156647120272628  0.9244997368433456
  0.6633561810142145  0.8319861901578507  0.6674193488366255
  0.8358185124817221  0.1655547337187468  0.3337467954197821
 
  0.00000000E+00  0.00000000E+00  0.00000000E+00
  0.00000000E+00  0.00000000E+00  0.00000000E+00
  0.00000000E+00  0.00000000E+00  0.00000000E+00
  0.00000000E+00  0.00000000E+00  0.00000000E+00
  0.00000000E+00  0.00000000E+00  0.00000000E+00
  0.00000000E+00  0.00000000E+00  0.00000000E+00
  0.00000000E+00  0.00000000E+00  0.00000000E+00
  0.00000000E+00  0.00000000E+00  0.00000000E+00
  0.00000000E+00  0.00000000E+00  0.00000000E+00
  0.00000000E+00  0.00000000E+00  0.00000000E+00
  0.00000000E+00  0.00000000E+00  0.00000000E+00
  0.00000000E+00  0.00000000E+00  0.00000000E+00
  0.00000000E+00  0.00000000E+00  0.00000000E+00
  0.00000000E+00  0.00000000E+00  0.00000000E+00
  0.00000000E+00  0.00000000E+00  0.00000000E+00
  0.00000000E+00  0.00000000E+00  0.00000000E+00
  0.00000000E+00  0.00000000E+00  0.00000000E+00
  0.00000000E+00  0.00000000E+00  0.00000000E+00
  0.00000000E+00  0.00000000E+00  0.00000000E+00
  0.00000000E+00  0.00000000E+00  0.00000000E+00
  0.00000000E+00  0.00000000E+00  0.00000000E+00
  0.00000000E+00  0.00000000E+00  0.00000000E+00
  0.00000000E+00  0.00000000E+00  0.00000000E+00
  0.00000000E+00  0.00000000E+00  0.00000000E+00
  0.00000000E+00  0.00000000E+00  0.00000000E+00
  0.00000000E+00  0.00000000E+00  0.00000000E+00
  0.00000000E+00  0.00000000E+00  0.00000000E+00
  0.00000000E+00  0.00000000E+00  0.00000000E+00
  0.00000000E+00  0.00000000E+00  0.00000000E+00
  0.00000000E+00  0.00000000E+00  0.00000000E+00
  0.00000000E+00  0.00000000E+00  0.00000000E+00
  0.00000000E+00  0.00000000E+00  0.00000000E+00
  0.00000000E+00  0.00000000E+00  0.00000000E+00
  0.00000000E+00  0.00000000E+00  0.00000000E+00
  0.00000000E+00  0.00000000E+00  0.00000000E+00
  0.00000000E+00  0.00000000E+00  0.00000000E+00
  0.00000000E+00  0.00000000E+00  0.00000000E+00
  0.00000000E+00  0.00000000E+00  0.00000000E+00
  0.00000000E+00  0.00000000E+00  0.00000000E+00
  0.00000000E+00  0.00000000E+00  0.00000000E+00
  0.00000000E+00  0.00000000E+00  0.00000000E+00
  0.00000000E+00  0.00000000E+00  0.00000000E+00
  0.00000000E+00  0.00000000E+00  0.00000000E+00
  0.00000000E+00  0.00000000E+00  0.00000000E+00
  0.00000000E+00  0.00000000E+00  0.00000000E+00
  0.00000000E+00  0.00000000E+00  0.00000000E+00
  0.00000000E+00  0.00000000E+00  0.00000000E+00
  0.00000000E+00  0.00000000E+00  0.00000000E+00
