NMC-811                                 
   1.00000000000000     
     5.6079401724433424    0.0154364192748944   -0.0339086794469560
    -2.8180596565717111    4.9530509820865767   -0.0177192125402839
    -0.0857497441068255   -0.1003831845293523   14.2953375160867235
   Li   Ni   O    Co   Mn
     6    10    24     1     1
Direct
  0.1831499617386842  0.3362336385566330  0.1658439294726316
  0.1678115314592048  0.8338949846002846  0.1689149192188464
  0.5061057934081511  0.9945572746983509  0.5006370703290733
  0.0002300495121565  0.5042647911471156  0.5004401183542968
  0.3297001820550437  0.1664733086258071  0.8327396731388187
  0.8241986321526634  0.6750372497538124  0.8335947068444546
  0.0021685505513642  0.9997579637596947  0.9995926732008099
  0.0005994023916156  0.4987736252253098  0.9958289303114971
  0.5037726525653502  0.9999685973664474  0.9997350191758713
  0.5016535192148401  0.5009522694483106  0.0027208623746286
  0.3345217484153876  0.1669704462673393  0.3377395210650956
  0.3316439220770798  0.6635488695721405  0.3332337476949825
  0.8302715122292869  0.6643024990467781  0.3332855884101158
  0.1656898856009378  0.3360067036309215  0.6672128327416044
  0.1657767171634102  0.8360940442307531  0.6672839855380255
  0.6656477860390656  0.3360578546998659  0.6672318033111552
  0.3330089142424424  0.1623309401295998  0.0697694556282487
  0.3145278414561412  0.6393457416979538  0.0721122426241971
  0.8422902747114021  0.1735359373086867  0.0650935168607800
  0.8554242415507696  0.6803049807248776  0.0687654421468799
  0.0224505839705923  0.0266490508056544  0.2578757541359525
 -0.0019357971892678  0.4982619312669935  0.2618128588261947
  0.4941564450330037  0.9769635522231017  0.2601435987235254
  0.4933937913760707  0.4880628808423205  0.2687147312200920
  0.1535433960148851  0.3486626796252085  0.4054133843773553
  0.1665700375768159  0.8313709207114333  0.4021606018882570
  0.6636176283919889  0.3040046107274339  0.4091086710931195
  0.6702814960672899  0.8393597437805116  0.4002063227737248
  0.3268768276608602  0.1638827481576999  0.6006686505244855
  0.3375433704499732  0.6909937242872329  0.5937182297077515
  0.8240610384790360  0.1635462658002947  0.5992855648608363
  0.8301335242321298  0.6631202000587436  0.5998140026058304
  0.9944346654973826  0.9812149173882131  0.7410542026802054
  0.0044356892586876  0.5080849511208029  0.7338123934138597
  0.5014242066977133  0.0094369008377134  0.7348753128628173
  0.5069952637532907  0.5080191440738384  0.7354867869729582
  0.1640695432207670  0.3184734995792068  0.9300079492601382
  0.1667457781141607  0.8368386100045072  0.9291007750511661
  0.6695768186828654  0.3603255487776281  0.9262316374381531
  0.6661138544043739  0.8283487458132445  0.9337920006449585
  0.6658012886285785  0.8361240660151849  0.6674140584536637
  0.8305974721437974  0.1614496276123413  0.3290316670429719
 
  0.00000000E+00  0.00000000E+00  0.00000000E+00
  0.00000000E+00  0.00000000E+00  0.00000000E+00
  0.00000000E+00  0.00000000E+00  0.00000000E+00
  0.00000000E+00  0.00000000E+00  0.00000000E+00
  0.00000000E+00  0.00000000E+00  0.00000000E+00
  0.00000000E+00  0.00000000E+00  0.00000000E+00
  0.00000000E+00  0.00000000E+00  0.00000000E+00
  0.00000000E+00  0.00000000E+00  0.00000000E+00
  0.00000000E+00  0.00000000E+00  0.00000000E+00
  0.00000000E+00  0.00000000E+00  0.00000000E+00
  0.00000000E+00  0.00000000E+00  0.00000000E+00
  0.00000000E+00  0.00000000E+00  0.00000000E+00
  0.00000000E+00  0.00000000E+00  0.00000000E+00
  0.00000000E+00  0.00000000E+00  0.00000000E+00
  0.00000000E+00  0.00000000E+00  0.00000000E+00
  0.00000000E+00  0.00000000E+00  0.00000000E+00
  0.00000000E+00  0.00000000E+00  0.00000000E+00
  0.00000000E+00  0.00000000E+00  0.00000000E+00
  0.00000000E+00  0.00000000E+00  0.00000000E+00
  0.00000000E+00  0.00000000E+00  0.00000000E+00
  0.00000000E+00  0.00000000E+00  0.00000000E+00
  0.00000000E+00  0.00000000E+00  0.00000000E+00
  0.00000000E+00  0.00000000E+00  0.00000000E+00
  0.00000000E+00  0.00000000E+00  0.00000000E+00
  0.00000000E+00  0.00000000E+00  0.00000000E+00
  0.00000000E+00  0.00000000E+00  0.00000000E+00
  0.00000000E+00  0.00000000E+00  0.00000000E+00
  0.00000000E+00  0.00000000E+00  0.00000000E+00
  0.00000000E+00  0.00000000E+00  0.00000000E+00
  0.00000000E+00  0.00000000E+00  0.00000000E+00
  0.00000000E+00  0.00000000E+00  0.00000000E+00
  0.00000000E+00  0.00000000E+00  0.00000000E+00
  0.00000000E+00  0.00000000E+00  0.00000000E+00
  0.00000000E+00  0.00000000E+00  0.00000000E+00
  0.00000000E+00  0.00000000E+00  0.00000000E+00
  0.00000000E+00  0.00000000E+00  0.00000000E+00
  0.00000000E+00  0.00000000E+00  0.00000000E+00
  0.00000000E+00  0.00000000E+00  0.00000000E+00
  0.00000000E+00  0.00000000E+00  0.00000000E+00
  0.00000000E+00  0.00000000E+00  0.00000000E+00
  0.00000000E+00  0.00000000E+00  0.00000000E+00
  0.00000000E+00  0.00000000E+00  0.00000000E+00
