NMC-811                                 
   1.00000000000000     
     5.6762063208023195    0.0076792149234432   -0.0158973085305916
    -2.8606105079556965    4.9747127548965668   -0.0131688211029526
    -0.0394128599709651   -0.0600776481467534   14.1607661070046635
   Li   Ni   O    Co   Mn
     9    10    24     1     1
Direct
  0.1931034344535077  0.3305354080997295  0.1647821867566266
  0.1507425333724696  0.8114635709691379  0.1698508714762575
  0.6708469244049480  0.8476332376183446  0.1631040776085259
  0.5077858254622998  0.9900034861806265  0.5013579059216339
  0.9899276412895240  0.5004559316409151  0.5035408984237913
  0.0065465952282972  0.0088337511504351  0.5018579693128562
  0.3423549050226365  0.1673320668930669  0.8308388488572522
  0.3288843892419576  0.6608961001786836  0.8323954925103350
  0.8276223695995933  0.6763175765560852  0.8330038327223024
  0.0053838581426453  0.0058364561839858  0.9956333039153449
 -0.0001609947819891  0.4999344398856903  0.9992552252002145
  0.5046877236806389  0.0028518248019678  0.9983601781369033
  0.5045284588267376  0.5023123013584013  0.0020572949410917
  0.3304563659742706  0.1653846284066083  0.3340873044167999
  0.3269446164656639  0.6597992622289466  0.3377692580576069
  0.8262074895526699  0.6633349225705825  0.3346525797817885
  0.1678605975828445  0.3348036427529482  0.6672519937688044
  0.1679004404914959  0.8349557900890024  0.6674864406271402
  0.6675920445705956  0.3347265388144431  0.6672742990074099
  0.3585029762699207  0.1770268392453922  0.0712123680077065
  0.3186420087247902  0.6386009030023718  0.0762519450806512
  0.8402793597737116  0.1679577749665584  0.0640735527484544
  0.8335651043724125  0.6996722060332177  0.0725563529717267
  0.0124916321449059  0.0260675333297007  0.2540632390943186
  0.9698678351729194  0.4893850019417376  0.2588481874683277
  0.4959521525555686  0.9650015895585766  0.2583862972127592
  0.4902434824094538  0.4969850970991733  0.2696011837940289
  0.1387027340942624  0.3402871760753608  0.4093583237314235
  0.1615941857213229  0.8335354284914652  0.4032558668366661
  0.6509691723294885  0.2977074003222872  0.4085410524296059
  0.6980431617474860  0.8557232598451587  0.4074069009089504
  0.3256269388681440  0.1595256522943674  0.5992003162375954
  0.3399148346114720  0.6907221221146357  0.5934177446562041
  0.8329766438054852  0.1569711711636393  0.5965678393670664
  0.8463034837298540  0.6856726933801448  0.5947797582550505
  0.9954728661702773  0.9794033612830433  0.7415187773053308
  0.0096047590745222  0.5097273457766763  0.7354701869952159
  0.4899867123913765  0.9841661120992775  0.7402533010589455
  0.5026937486433931  0.5130226879253840  0.7380097017158275
  0.1924191435922815  0.3256455053700839  0.9253106493401164
  0.1696912407104717  0.8312449818575136  0.9292632872911991
  0.6801791433532638  0.3685251609271896  0.9263259232244105
  0.6362430880370312  0.8126832667847627  0.9274615992432860
  0.6678832896776192  0.8349229305549590  0.6673510757660042
  0.8265058884377990  0.1657252841777108  0.3295071638164492
 
  0.00000000E+00  0.00000000E+00  0.00000000E+00
  0.00000000E+00  0.00000000E+00  0.00000000E+00
  0.00000000E+00  0.00000000E+00  0.00000000E+00
  0.00000000E+00  0.00000000E+00  0.00000000E+00
  0.00000000E+00  0.00000000E+00  0.00000000E+00
  0.00000000E+00  0.00000000E+00  0.00000000E+00
  0.00000000E+00  0.00000000E+00  0.00000000E+00
  0.00000000E+00  0.00000000E+00  0.00000000E+00
  0.00000000E+00  0.00000000E+00  0.00000000E+00
  0.00000000E+00  0.00000000E+00  0.00000000E+00
  0.00000000E+00  0.00000000E+00  0.00000000E+00
  0.00000000E+00  0.00000000E+00  0.00000000E+00
  0.00000000E+00  0.00000000E+00  0.00000000E+00
  0.00000000E+00  0.00000000E+00  0.00000000E+00
  0.00000000E+00  0.00000000E+00  0.00000000E+00
  0.00000000E+00  0.00000000E+00  0.00000000E+00
  0.00000000E+00  0.00000000E+00  0.00000000E+00
  0.00000000E+00  0.00000000E+00  0.00000000E+00
  0.00000000E+00  0.00000000E+00  0.00000000E+00
  0.00000000E+00  0.00000000E+00  0.00000000E+00
  0.00000000E+00  0.00000000E+00  0.00000000E+00
  0.00000000E+00  0.00000000E+00  0.00000000E+00
  0.00000000E+00  0.00000000E+00  0.00000000E+00
  0.00000000E+00  0.00000000E+00  0.00000000E+00
  0.00000000E+00  0.00000000E+00  0.00000000E+00
  0.00000000E+00  0.00000000E+00  0.00000000E+00
  0.00000000E+00  0.00000000E+00  0.00000000E+00
  0.00000000E+00  0.00000000E+00  0.00000000E+00
  0.00000000E+00  0.00000000E+00  0.00000000E+00
  0.00000000E+00  0.00000000E+00  0.00000000E+00
  0.00000000E+00  0.00000000E+00  0.00000000E+00
  0.00000000E+00  0.00000000E+00  0.00000000E+00
  0.00000000E+00  0.00000000E+00  0.00000000E+00
  0.00000000E+00  0.00000000E+00  0.00000000E+00
  0.00000000E+00  0.00000000E+00  0.00000000E+00
  0.00000000E+00  0.00000000E+00  0.00000000E+00
  0.00000000E+00  0.00000000E+00  0.00000000E+00
  0.00000000E+00  0.00000000E+00  0.00000000E+00
  0.00000000E+00  0.00000000E+00  0.00000000E+00
  0.00000000E+00  0.00000000E+00  0.00000000E+00
  0.00000000E+00  0.00000000E+00  0.00000000E+00
  0.00000000E+00  0.00000000E+00  0.00000000E+00
  0.00000000E+00  0.00000000E+00  0.00000000E+00
  0.00000000E+00  0.00000000E+00  0.00000000E+00
  0.00000000E+00  0.00000000E+00  0.00000000E+00
