NMC-811                                 
   1.00000000000000     
     5.6912169220031199   -0.0014475272983062   -0.0189635701552957
    -2.8694001421578914    4.9825378764042121   -0.0137724503200760
    -0.0468230897329931   -0.0658698987707617   14.1243825768270401
   Li   Ni   O    Co   Mn
    10    10    24     1     1
Direct
  0.1686051393841514  0.3333076647109140  0.1654406891879980
  0.1664013580503896  0.8320034015324647  0.1694677960302896
  0.6659133911327909  0.3329699895079781  0.1659908084464873
  0.6659818468298376  0.8334197110148207  0.1653154428395808
  0.5047956048517217  0.9918373663488022  0.5009071040192496
  0.9964444357288226  0.4985113836913855  0.5024914286278229
  0.0055425900243851  0.0077351733428047  0.5006681834717694
  0.3365925626285726  0.1674059843020246  0.8316492313279533
  0.3286652694256883  0.6596182335214997  0.8331795536622482
  0.8272575055875590  0.6735770996921996  0.8332514458394275
  0.0005902970755346  0.0022576011348305  0.9975313566072478
  0.9992599474136517  0.4996664145255706  0.9977412443461234
  0.5012409868782890  0.0010595993428810  0.9979152877802742
  0.5008035036297335  0.5014647304876753  0.0021765854014295
  0.3344903370355467  0.1677333701777654  0.3351399638334167
  0.3341873128849015  0.6649990894178986  0.3352689661510718
  0.8330030806295229  0.6653794945358857  0.3347841348544157
  0.1659809094300652  0.3333088171745460  0.6671194697212054
  0.1661051707146521  0.8335487924870743  0.6673858516131126
  0.6660139803469388  0.3334643555006261  0.6671002136259906
  0.3559288566284715  0.1765511635726237  0.0733740452221294
  0.3186854998267583  0.6399992202210510  0.0766768647012474
  0.8321915050790580  0.1761688561324910  0.0681778154659487
  0.8238453180751830  0.6802333250216037  0.0778728879780082
  0.0146929991891055  0.0258082500596326  0.2539250246874042
  0.9801872434511893  0.4915175798016478  0.2570674594382465
  0.5124410488361240  0.9929944421918400  0.2518090671000074
  0.5026983017656319  0.4907595905542066  0.2645327598499865
  0.1413880572241841  0.3321026193836162  0.4106168906829322
  0.1647128954284693  0.8410989395316703  0.4041377427656722
  0.6601955739772182  0.3015622387885517  0.4091577652152846
  0.6928465322654549  0.8512736459235610  0.4054372646211561
  0.3239686666582514  0.1583519019119771  0.5992315076903214
  0.3378224275541582  0.6894309966728157  0.5932628025955832
  0.8323366302805635  0.1546589305473708  0.5960589510459510
  0.8421181838988068  0.6812912000250940  0.5954174150434578
  0.9939456864138928  0.9778264822173913  0.7414814160895592
  0.0080194047945380  0.5080036302017067  0.7352488748090575
  0.4909455446161202  0.9862235932436385  0.7392719266028318
  0.4997846712728276  0.5121655215048447  0.7383163727805759
  0.1903639151139717  0.3303242981963497  0.9253000029800587
  0.1692866583359532  0.8258329108179679  0.9279442095285987
  0.6738243306433334  0.3658495833279092  0.9260289710112235
  0.6402174462537096  0.8140375981873411  0.9293300637957916
  0.6660983331923028  0.8335250390423699  0.6672027737101518
  0.8330632625419430  0.1654294664710785  0.3311378912016870
 
  0.00000000E+00  0.00000000E+00  0.00000000E+00
  0.00000000E+00  0.00000000E+00  0.00000000E+00
  0.00000000E+00  0.00000000E+00  0.00000000E+00
  0.00000000E+00  0.00000000E+00  0.00000000E+00
  0.00000000E+00  0.00000000E+00  0.00000000E+00
  0.00000000E+00  0.00000000E+00  0.00000000E+00
  0.00000000E+00  0.00000000E+00  0.00000000E+00
  0.00000000E+00  0.00000000E+00  0.00000000E+00
  0.00000000E+00  0.00000000E+00  0.00000000E+00
  0.00000000E+00  0.00000000E+00  0.00000000E+00
  0.00000000E+00  0.00000000E+00  0.00000000E+00
  0.00000000E+00  0.00000000E+00  0.00000000E+00
  0.00000000E+00  0.00000000E+00  0.00000000E+00
  0.00000000E+00  0.00000000E+00  0.00000000E+00
  0.00000000E+00  0.00000000E+00  0.00000000E+00
  0.00000000E+00  0.00000000E+00  0.00000000E+00
  0.00000000E+00  0.00000000E+00  0.00000000E+00
  0.00000000E+00  0.00000000E+00  0.00000000E+00
  0.00000000E+00  0.00000000E+00  0.00000000E+00
  0.00000000E+00  0.00000000E+00  0.00000000E+00
  0.00000000E+00  0.00000000E+00  0.00000000E+00
  0.00000000E+00  0.00000000E+00  0.00000000E+00
  0.00000000E+00  0.00000000E+00  0.00000000E+00
  0.00000000E+00  0.00000000E+00  0.00000000E+00
  0.00000000E+00  0.00000000E+00  0.00000000E+00
  0.00000000E+00  0.00000000E+00  0.00000000E+00
  0.00000000E+00  0.00000000E+00  0.00000000E+00
  0.00000000E+00  0.00000000E+00  0.00000000E+00
  0.00000000E+00  0.00000000E+00  0.00000000E+00
  0.00000000E+00  0.00000000E+00  0.00000000E+00
  0.00000000E+00  0.00000000E+00  0.00000000E+00
  0.00000000E+00  0.00000000E+00  0.00000000E+00
  0.00000000E+00  0.00000000E+00  0.00000000E+00
  0.00000000E+00  0.00000000E+00  0.00000000E+00
  0.00000000E+00  0.00000000E+00  0.00000000E+00
  0.00000000E+00  0.00000000E+00  0.00000000E+00
  0.00000000E+00  0.00000000E+00  0.00000000E+00
  0.00000000E+00  0.00000000E+00  0.00000000E+00
  0.00000000E+00  0.00000000E+00  0.00000000E+00
  0.00000000E+00  0.00000000E+00  0.00000000E+00
  0.00000000E+00  0.00000000E+00  0.00000000E+00
  0.00000000E+00  0.00000000E+00  0.00000000E+00
  0.00000000E+00  0.00000000E+00  0.00000000E+00
  0.00000000E+00  0.00000000E+00  0.00000000E+00
  0.00000000E+00  0.00000000E+00  0.00000000E+00
  0.00000000E+00  0.00000000E+00  0.00000000E+00
