NMC-811                                 
   1.00000000000000     
     5.6409601240211433    0.0034000098898664   -0.0252514115683560
    -2.8207855024877726    4.8861613586875672    0.0089455799473465
    -0.0629265133064073   -0.0106024469844699   13.9306177129477060
   Li   Ni   O    Co   Mn
     2    10    24     1     1
Direct
  0.4936116617112449  0.9907784220845812  0.4977234937340055
  0.3323479361992077  0.1673187297938985  0.8340382680086476
  0.9989689885061509  0.0002506952082352  0.0089260037107239
 -0.0006866821248703  0.5002471757773084  0.0046896760830559
  0.4995697342535925  0.0001471574855308  0.0090623064443042
  0.4995754141029307  0.5008594592779149  0.0086937279745491
  0.3369466951428917  0.1685322827698926  0.3238902989691205
  0.3369211925348385  0.6681554266396549  0.3238351941791566
  0.8365913564439477  0.6680547546530501  0.3283771223329744
  0.1648546710591160  0.3324431352318276  0.6635591879226405
  0.1639321780834910  0.8311572526153770  0.6678393459043538
  0.6662153055180021  0.3334268498967501  0.6676945536164223
  0.3344585454031172  0.1681348466588547  0.0765604002617191
  0.3309236435174414  0.6649825177456172  0.0749779404034455
  0.8361146271133936  0.1708623874434153  0.0752408675596943
  0.8355850622407859  0.6653036586619354  0.0748177151281208
  0.0015404875348501  0.9951975300266606  0.2567413720631878
  0.0015415736907795  0.5069378393568923  0.2567330222129636
  0.4993453093399279  0.0000670543711328  0.2548998105478584
  0.5045878568311476  0.5026650481714352  0.2570831158701125
  0.1737757933388268  0.3364639327265849  0.3930785044690033
  0.1810585157932830  0.8398617274003127  0.3955940787945295
  0.6673471769410617  0.3284518447653667  0.3955333159813426
  0.6672618293383117  0.8377633581407973  0.3955941371864865
  0.3338765492673643  0.1609859765044095  0.5964727532652097
  0.3367237696344780  0.6740084054297099  0.5990362693339235
  0.8215550178895747  0.1584645872904654  0.5989540820236673
  0.8284910745330979  0.6673414089897661  0.6010131420948530
  0.0084593935527970  0.0065803656037053  0.7363906775582533
  0.0019684616193426  0.4970069285625155  0.7352577977678491
  0.4964736302966931  0.0029903865364092  0.7382906967213282
  0.4929250637060843  0.4910521967769672  0.7363886729393277
  0.1682675847159986  0.3294150542346989  0.9380024822499294
  0.1684885237719510  0.8414277660519266  0.9381265863572065
  0.6563470500389907  0.3291861787769571  0.9381008564266723
  0.6645338992048377  0.8336725124513962  0.9405481454152455
  0.6655613072877332  0.8319422232749822  0.6712298491873174
  0.8389288279676075  0.1694279376131075  0.3221198123007724
 
  0.00000000E+00  0.00000000E+00  0.00000000E+00
  0.00000000E+00  0.00000000E+00  0.00000000E+00
  0.00000000E+00  0.00000000E+00  0.00000000E+00
  0.00000000E+00  0.00000000E+00  0.00000000E+00
  0.00000000E+00  0.00000000E+00  0.00000000E+00
  0.00000000E+00  0.00000000E+00  0.00000000E+00
  0.00000000E+00  0.00000000E+00  0.00000000E+00
  0.00000000E+00  0.00000000E+00  0.00000000E+00
  0.00000000E+00  0.00000000E+00  0.00000000E+00
  0.00000000E+00  0.00000000E+00  0.00000000E+00
  0.00000000E+00  0.00000000E+00  0.00000000E+00
  0.00000000E+00  0.00000000E+00  0.00000000E+00
  0.00000000E+00  0.00000000E+00  0.00000000E+00
  0.00000000E+00  0.00000000E+00  0.00000000E+00
  0.00000000E+00  0.00000000E+00  0.00000000E+00
  0.00000000E+00  0.00000000E+00  0.00000000E+00
  0.00000000E+00  0.00000000E+00  0.00000000E+00
  0.00000000E+00  0.00000000E+00  0.00000000E+00
  0.00000000E+00  0.00000000E+00  0.00000000E+00
  0.00000000E+00  0.00000000E+00  0.00000000E+00
  0.00000000E+00  0.00000000E+00  0.00000000E+00
  0.00000000E+00  0.00000000E+00  0.00000000E+00
  0.00000000E+00  0.00000000E+00  0.00000000E+00
  0.00000000E+00  0.00000000E+00  0.00000000E+00
  0.00000000E+00  0.00000000E+00  0.00000000E+00
  0.00000000E+00  0.00000000E+00  0.00000000E+00
  0.00000000E+00  0.00000000E+00  0.00000000E+00
  0.00000000E+00  0.00000000E+00  0.00000000E+00
  0.00000000E+00  0.00000000E+00  0.00000000E+00
  0.00000000E+00  0.00000000E+00  0.00000000E+00
  0.00000000E+00  0.00000000E+00  0.00000000E+00
  0.00000000E+00  0.00000000E+00  0.00000000E+00
  0.00000000E+00  0.00000000E+00  0.00000000E+00
  0.00000000E+00  0.00000000E+00  0.00000000E+00
  0.00000000E+00  0.00000000E+00  0.00000000E+00
  0.00000000E+00  0.00000000E+00  0.00000000E+00
  0.00000000E+00  0.00000000E+00  0.00000000E+00
  0.00000000E+00  0.00000000E+00  0.00000000E+00
