NMC-811                                 
   1.00000000000000     
     5.6674816833780461    0.0045571049625225   -0.0297769270191917
    -2.8608928882852904    4.9534449097092965    0.0017131650093386
    -0.0743559950045907   -0.0381038710302996   14.1969914837003905
   Li   Ni   O    Co   Mn
     8    10    24     1     1
Direct
  0.1828520935712042  0.3313184896325293  0.1658567487108130
  0.1646925192928622  0.8298495994650362  0.1687761318287115
  0.6704885853149493  0.8368945059723472  0.1648007715660101
  0.5001880109690030  0.9958792362003087  0.5008994620869934
  0.9944436819550823  0.5024217896521570  0.5015697247875752
  0.3417851973595598  0.1670279896091089  0.8322112446693866
  0.3208810178488243  0.6505624875156429  0.8337793475028039
  0.8285852485261557  0.6781364673012409  0.8336587222712968
  0.0049953215875252  0.0046094408305112  0.9956684569143675
  0.0000590690971868  0.4989872238434437  0.9993862174143572
  0.5048900932982531  0.0015860032963278  0.9984761744807297
  0.5045001516121792  0.5008906760188334  0.0020704355447152
  0.3312598843366413  0.1674946078965691  0.3352125494886142
  0.3305996829567457  0.6655808596617353  0.3334906460174386
  0.8295825798362736  0.6653508003589512  0.3350825708848055
  0.1646808759992241  0.3315548881133131  0.6659835482530726
  0.1646192698316918  0.8335691539399357  0.6673441890374389
  0.6651190450555131  0.3327810134302389  0.6701212032180218
  0.3564537630845016  0.1738300677963762  0.0711702599598349
  0.3204400460930618  0.6384137236096225  0.0756003867115922
  0.8417436884242077  0.1663925228570781  0.0646841080479417
  0.8347941358706283  0.6972841131372572  0.0724875216067594
  0.0102889453860363  0.0206298138194301  0.2554711005501827
  0.0026092006975930  0.4998258335687951  0.2606042712079225
  0.5025193476028109  0.9749224205370493  0.2554837448056277
  0.4890653832733305  0.4932054517428972  0.2663269428573521
  0.1474763860659750  0.3497607285024938  0.4065708472644652
  0.1734547733947485  0.8382044708300631  0.4017560318947808
  0.6587600021951738  0.3060168241551720  0.4069791562809223
  0.6636585341567171  0.8425748224832648  0.4020571163054002
  0.3349845398478608  0.1618568870224535  0.6011273970414112
  0.3342838121311671  0.6846214123726281  0.5953036630361860
  0.8176253827194611  0.1611235890004188  0.5994688507724937
  0.8329054490120489  0.6683082061219128  0.5994464468145640
  0.9956846533548680  0.9828803353423765  0.7399302044701441
  0.0057564868984247  0.5087266364565024  0.7374060495275460
  0.4915672409475967  0.9886855639937336  0.7395572754314369
  0.5062854786242393  0.5082884939957096  0.7395915444643385
  0.1913647031435093  0.3250867406626093  0.9251217487887433
  0.1687815204065501  0.8311518203924511  0.9285269967643801
  0.6793842917194944  0.3662821201045741  0.9267513406683942
  0.6369889609385779  0.8124249312048052  0.9271705004095551
  0.6657867684807994  0.8337306026409473  0.6669460831238723
  0.8301383770817682  0.1657623459111663  0.3307668705169908
 
  0.00000000E+00  0.00000000E+00  0.00000000E+00
  0.00000000E+00  0.00000000E+00  0.00000000E+00
  0.00000000E+00  0.00000000E+00  0.00000000E+00
  0.00000000E+00  0.00000000E+00  0.00000000E+00
  0.00000000E+00  0.00000000E+00  0.00000000E+00
  0.00000000E+00  0.00000000E+00  0.00000000E+00
  0.00000000E+00  0.00000000E+00  0.00000000E+00
  0.00000000E+00  0.00000000E+00  0.00000000E+00
  0.00000000E+00  0.00000000E+00  0.00000000E+00
  0.00000000E+00  0.00000000E+00  0.00000000E+00
  0.00000000E+00  0.00000000E+00  0.00000000E+00
  0.00000000E+00  0.00000000E+00  0.00000000E+00
  0.00000000E+00  0.00000000E+00  0.00000000E+00
  0.00000000E+00  0.00000000E+00  0.00000000E+00
  0.00000000E+00  0.00000000E+00  0.00000000E+00
  0.00000000E+00  0.00000000E+00  0.00000000E+00
  0.00000000E+00  0.00000000E+00  0.00000000E+00
  0.00000000E+00  0.00000000E+00  0.00000000E+00
  0.00000000E+00  0.00000000E+00  0.00000000E+00
  0.00000000E+00  0.00000000E+00  0.00000000E+00
  0.00000000E+00  0.00000000E+00  0.00000000E+00
  0.00000000E+00  0.00000000E+00  0.00000000E+00
  0.00000000E+00  0.00000000E+00  0.00000000E+00
  0.00000000E+00  0.00000000E+00  0.00000000E+00
  0.00000000E+00  0.00000000E+00  0.00000000E+00
  0.00000000E+00  0.00000000E+00  0.00000000E+00
  0.00000000E+00  0.00000000E+00  0.00000000E+00
  0.00000000E+00  0.00000000E+00  0.00000000E+00
  0.00000000E+00  0.00000000E+00  0.00000000E+00
  0.00000000E+00  0.00000000E+00  0.00000000E+00
  0.00000000E+00  0.00000000E+00  0.00000000E+00
  0.00000000E+00  0.00000000E+00  0.00000000E+00
  0.00000000E+00  0.00000000E+00  0.00000000E+00
  0.00000000E+00  0.00000000E+00  0.00000000E+00
  0.00000000E+00  0.00000000E+00  0.00000000E+00
  0.00000000E+00  0.00000000E+00  0.00000000E+00
  0.00000000E+00  0.00000000E+00  0.00000000E+00
  0.00000000E+00  0.00000000E+00  0.00000000E+00
  0.00000000E+00  0.00000000E+00  0.00000000E+00
  0.00000000E+00  0.00000000E+00  0.00000000E+00
  0.00000000E+00  0.00000000E+00  0.00000000E+00
  0.00000000E+00  0.00000000E+00  0.00000000E+00
  0.00000000E+00  0.00000000E+00  0.00000000E+00
  0.00000000E+00  0.00000000E+00  0.00000000E+00
