System                                  
   1.0000000000000000     
     6.2805704247416765   -0.0212615712561939    1.1322619818915771
     5.6309842936107612    2.7817324485076762    1.1322622674055924
    -0.0841786199837916   -0.0195097153170509    9.6932782291277864
  Li              Mn              Co              O             
     6     2     2    10
Direct
     0.7158998369728385    0.7158998763282902    0.8834070302642644
     0.0892755369918407    0.0892755348868660    0.7057750888353665
     0.3015138861564412    0.3015141399159640    0.0841820119339186
     0.9038433574264463    0.9038432904910713    0.3052923613197094
     0.4896373406599768    0.4896371906669326    0.5190559444082615
     0.3981558627931023    0.3981559024907024    0.7942115390007671
     0.9977548758812155    0.9977548145128959    0.9974724054287483
     0.1989398210556574    0.1989398127843821    0.4016386235428810
     0.6025041150192143    0.6025041194267979    0.1984180725156801
     0.8001688293365977    0.8001687412841115    0.6038889118027485
     0.0614285121943978    0.0614287095836452    0.3331932065387377
     0.5479534064216683    0.5479533618225262    0.8720915338948194
     0.9410295755469089    0.9410292865292843    0.6460265228850341
     0.1415277040732914    0.1415275361661800    0.0673022132263705
     0.7422263682861072    0.7422262235192778    0.2637985551297222
     0.3381277510542501    0.3381273992619838    0.4585081025419588
     0.8599815907856377    0.8599820402259293    0.9596026151753757
     0.2515030822837299    0.2515032794802322    0.7300804992896125
     0.4630261123662888    0.4630260808365593    0.1405252646519478
     0.6555014346943780    0.6555016597863489    0.5355304976140582

  0.00000000E+00  0.00000000E+00  0.00000000E+00
  0.00000000E+00  0.00000000E+00  0.00000000E+00
  0.00000000E+00  0.00000000E+00  0.00000000E+00
  0.00000000E+00  0.00000000E+00  0.00000000E+00
  0.00000000E+00  0.00000000E+00  0.00000000E+00
  0.00000000E+00  0.00000000E+00  0.00000000E+00
  0.00000000E+00  0.00000000E+00  0.00000000E+00
  0.00000000E+00  0.00000000E+00  0.00000000E+00
  0.00000000E+00  0.00000000E+00  0.00000000E+00
  0.00000000E+00  0.00000000E+00  0.00000000E+00
  0.00000000E+00  0.00000000E+00  0.00000000E+00
  0.00000000E+00  0.00000000E+00  0.00000000E+00
  0.00000000E+00  0.00000000E+00  0.00000000E+00
  0.00000000E+00  0.00000000E+00  0.00000000E+00
  0.00000000E+00  0.00000000E+00  0.00000000E+00
  0.00000000E+00  0.00000000E+00  0.00000000E+00
  0.00000000E+00  0.00000000E+00  0.00000000E+00
  0.00000000E+00  0.00000000E+00  0.00000000E+00
  0.00000000E+00  0.00000000E+00  0.00000000E+00
  0.00000000E+00  0.00000000E+00  0.00000000E+00
