System                                  
   1.0000000000000000     
    11.3414376695480694   -0.0647836135991604   -0.2488026780888000
    -5.6337010728795018    9.9288513910399363    0.0710431474792025
     0.0222419509143507    0.0786910209071783    9.2036924770866690
  Li              Mn              Co              Ni              O             
    15    12     8    12    64
Direct
     0.1701044408754455    0.3378473682886311    0.8967803010366810
     0.1738313118108326    0.8387522097064199    0.8978919420817163
     0.6674756374720280    0.3379488242748530    0.8915406133416052
     0.6672741921014951    0.8381156971562745    0.8950898217907730
     0.4970284497004306    0.4998852259084084    0.9919400244957675
     0.9965174832129245    0.9998420646684810    0.9958110015191046
     0.9976374943280852    0.5008930126399973    0.9944361872677594
     0.4940280352098177    0.4902173268041523    0.4965728798387205
     0.4938778931197619    0.9954127075700432    0.4937923711205744
     0.9964674248143615    0.4944977553041330    0.4959501422805619
     0.9937576145534029    0.9950362670828187    0.4956574465734019
     0.3333829810092914    0.1637777399074835    0.4001998839075664
     0.3322973361603471    0.6647834244320593    0.4019520716701983
     0.8289275778583486    0.1613105495110894    0.3995313955173942
     0.8307328076728450    0.6643397890535170    0.3977392910712281
     0.0855746417841855    0.4158301284087587    0.2164833156446588
     0.0893330501449192    0.9166027839194733    0.2135186722682595
     0.5859203466819068    0.4152018757735831    0.2110736395384085
     0.5841494261146476    0.9153971347689671    0.2065592782799498
     0.0886942478616015    0.1729843961211297    0.2129018615403682
     0.0858375878930002    0.6704012315452430    0.2150800844036770
     0.5862154169578135    0.1695420285227483    0.2049326193303573
     0.5853559693207291    0.6714413672239545    0.2130418075241961
     0.1679413042964605    0.0824235257187703    0.7183005858583200
     0.1704219390894413    0.5829103662117406    0.7152741569323566
     0.6645034531570436    0.0824136400671150    0.7181487945078258
     0.6704123477014071    0.5824496864208014    0.7072554681707072
     0.1648369801955674    0.3287922717057897    0.4857740854524782
     0.1658444018822900    0.8271819967237254    0.4848881780593293
     0.6697216585828188    0.3296310947427382    0.4809951884604405
     0.6637085744477760    0.8270810942540627    0.4829189873731209
     0.3405071904588023    0.1707273610374688    0.9825817897308893
     0.3359062996990886    0.6706044977002731    0.9828998419644456
     0.8396139968668825    0.1733407281370139    0.9845251081671010
     0.8424754563727804    0.6750616550033652    0.9813521913381436
     0.4151733861834072    0.0828112052029760    0.7167763469555376
     0.4186856551582468    0.5875918781821043    0.7127437442709330
     0.9155611308697034    0.0851441790545015    0.7130111738786037
     0.9190083532812164    0.5865736299577847    0.7116595489218999
     0.3319309804042526    0.4196251425574939    0.2134202115873813
     0.3333643493322818    0.9138951927351999    0.2057234334546847
     0.8297223845915598    0.4143202189373441    0.2094865722558198
     0.8299215172741200    0.9165580372807582    0.2139586436783056
     0.4105680266128081    0.3291669694820105    0.7132408361394875
     0.4138718197881341    0.8313543805731434    0.7196947676486208
     0.9134202082352945    0.3294255705859195    0.7141476780006409
     0.9142070451974711    0.8304157507164592    0.7125964186302430
     0.1676726386284463    0.0839387590421933    0.1015059513211105
     0.1645801769738812    0.5832497636890208    0.1036341091026047
     0.6747710837806515    0.0888275757959224    0.0996525281852731
     0.6680531754148663    0.5854987107204723    0.0986238745048546
     0.4233447221234284    0.3357386770761838    0.0927003007232601
     0.4191893375205865    0.8375007139836528    0.0932239429691660
     0.9206758289737625    0.3365575988744230    0.0940561479201489
     0.9214041090017696    0.8328024799286821    0.0954429129222347
     0.3302182445648409    0.1620400270565963    0.6111150203824653
     0.3358617124013288    0.6707797645737897    0.6126488690952910
     0.8328838285292908    0.1685232760938668    0.6123454673599109
     0.8385712360014100    0.6712387926422312    0.6080954099950209
     0.2584959306272051    0.0211181575520541    0.8492670378795174
     0.2614030397717073    0.5228378355932917    0.8458165795347107
     0.7637969102491583    0.0248526109222292    0.8471802253675967
     0.7662744585456348    0.5255778244228800    0.8423352317032423
     0.2484115515755220    0.2306585778258424    0.8516042084850529
     0.2584257189502022    0.7401290748128845    0.8394518180517894
     0.7613506472376851    0.2436354207508914    0.8400341595683799
     0.7622931358368281    0.7428477803415936    0.8377711208135186
     0.3306830717344818    0.4106986019063888    0.5942233268937908
     0.3331447495499898    0.9100705559814803    0.5973290663143832
     0.8346139863551547    0.4092979255618848    0.5932598700798424
     0.8308537477605842    0.9090728497437417    0.5939421999606340
     0.2409065001873486    0.2615645979269869    0.3439911735145837
     0.2313373705163016    0.7485247451876520    0.3493314394797359
     0.7331179838550862    0.2501107823277192    0.3423669143714772
     0.7320752217864503    0.7520042394963189    0.3474980427928921
     0.0165005172672576    0.2566914484249524    0.3388214056204522
     0.0179233013356081    0.7593235335828186    0.3390046483878313
     0.5190963137292431    0.2586116287074346    0.3351784166900165
     0.5155080253691764    0.7584031806639026    0.3363166776817115
     0.0816412312691052    0.1604981140128699    0.5984918183499349
     0.0815132525977880    0.6599411327730837    0.5971519838529168
     0.5828355274969313    0.1609241172532644    0.5987859227295573
     0.5822304362842541    0.6595470416686005    0.5931628320781510
     0.9944032417946282    0.9950153687538872    0.8073171053760684
     0.9983938456716811    0.4962854390790388    0.8065000749222265
     0.4964672423152721    0.9973625233087764    0.8186740256850559
     0.5020153371637083    0.5017792934827504    0.8038071003512934
     0.0116108571431421    1.0057305905657938    0.3078535378334877
     0.9954642444346655    0.4976060876185467    0.3069378623650151
     0.5001396524812952    0.0009821333321200    0.3023277418909032
     0.5025776953873791    0.4995471999917249    0.3074543809845592
     0.1673169500374706    0.3380692724453694    0.1067389555140979
     0.1675133366976785    0.8315879616002818    0.1048348695311127
     0.6694099666014616    0.3361719094053052    0.1020630833464787
     0.6575753911088879    0.8286403923901140    0.1003271965403854
     0.4803296698822803    0.2487572890180762    0.8472890592136583
     0.4811946554034350    0.7486493354607954    0.8488219964451625
     0.9816515653263026    0.2501502553313099    0.8491812349471002
     0.9851482591871830    0.7519462574091756    0.8470415945261038
     0.0802107029365757    0.4139259893629037    0.6047663705866004
     0.0808272101241983    0.9158000615654425    0.6033480675475419
     0.5944622479110234    0.4217549851263726    0.5972070306871139
     0.5785422349838413    0.9163504314451070    0.6088686185569072
     0.2308870468578452    0.4800680096475748    0.3528585073840186
     0.2421735952953403    0.9765397961035382    0.3432954254862369
     0.7394236514149877    0.4778967017950571    0.3435378959530656
     0.7305593195371785    0.9776936755303353    0.3482187088843848
     0.4208150894032056    0.0967024799890213    0.0923044358896705
     0.4200677718509780    0.5849511125321224    0.0958585819753243
     0.9244732954162306    0.0944048155753976    0.0926739595809369
     0.9229209360680055    0.5925315596581672    0.0911584304648356

  0.00000000E+00  0.00000000E+00  0.00000000E+00
  0.00000000E+00  0.00000000E+00  0.00000000E+00
  0.00000000E+00  0.00000000E+00  0.00000000E+00
  0.00000000E+00  0.00000000E+00  0.00000000E+00
  0.00000000E+00  0.00000000E+00  0.00000000E+00
  0.00000000E+00  0.00000000E+00  0.00000000E+00
  0.00000000E+00  0.00000000E+00  0.00000000E+00
  0.00000000E+00  0.00000000E+00  0.00000000E+00
  0.00000000E+00  0.00000000E+00  0.00000000E+00
  0.00000000E+00  0.00000000E+00  0.00000000E+00
  0.00000000E+00  0.00000000E+00  0.00000000E+00
  0.00000000E+00  0.00000000E+00  0.00000000E+00
  0.00000000E+00  0.00000000E+00  0.00000000E+00
  0.00000000E+00  0.00000000E+00  0.00000000E+00
  0.00000000E+00  0.00000000E+00  0.00000000E+00
  0.00000000E+00  0.00000000E+00  0.00000000E+00
  0.00000000E+00  0.00000000E+00  0.00000000E+00
  0.00000000E+00  0.00000000E+00  0.00000000E+00
  0.00000000E+00  0.00000000E+00  0.00000000E+00
  0.00000000E+00  0.00000000E+00  0.00000000E+00
  0.00000000E+00  0.00000000E+00  0.00000000E+00
  0.00000000E+00  0.00000000E+00  0.00000000E+00
  0.00000000E+00  0.00000000E+00  0.00000000E+00
  0.00000000E+00  0.00000000E+00  0.00000000E+00
  0.00000000E+00  0.00000000E+00  0.00000000E+00
  0.00000000E+00  0.00000000E+00  0.00000000E+00
  0.00000000E+00  0.00000000E+00  0.00000000E+00
  0.00000000E+00  0.00000000E+00  0.00000000E+00
  0.00000000E+00  0.00000000E+00  0.00000000E+00
  0.00000000E+00  0.00000000E+00  0.00000000E+00
  0.00000000E+00  0.00000000E+00  0.00000000E+00
  0.00000000E+00  0.00000000E+00  0.00000000E+00
  0.00000000E+00  0.00000000E+00  0.00000000E+00
  0.00000000E+00  0.00000000E+00  0.00000000E+00
  0.00000000E+00  0.00000000E+00  0.00000000E+00
  0.00000000E+00  0.00000000E+00  0.00000000E+00
  0.00000000E+00  0.00000000E+00  0.00000000E+00
  0.00000000E+00  0.00000000E+00  0.00000000E+00
  0.00000000E+00  0.00000000E+00  0.00000000E+00
  0.00000000E+00  0.00000000E+00  0.00000000E+00
  0.00000000E+00  0.00000000E+00  0.00000000E+00
  0.00000000E+00  0.00000000E+00  0.00000000E+00
  0.00000000E+00  0.00000000E+00  0.00000000E+00
  0.00000000E+00  0.00000000E+00  0.00000000E+00
  0.00000000E+00  0.00000000E+00  0.00000000E+00
  0.00000000E+00  0.00000000E+00  0.00000000E+00
  0.00000000E+00  0.00000000E+00  0.00000000E+00
  0.00000000E+00  0.00000000E+00  0.00000000E+00
  0.00000000E+00  0.00000000E+00  0.00000000E+00
  0.00000000E+00  0.00000000E+00  0.00000000E+00
  0.00000000E+00  0.00000000E+00  0.00000000E+00
  0.00000000E+00  0.00000000E+00  0.00000000E+00
  0.00000000E+00  0.00000000E+00  0.00000000E+00
  0.00000000E+00  0.00000000E+00  0.00000000E+00
  0.00000000E+00  0.00000000E+00  0.00000000E+00
  0.00000000E+00  0.00000000E+00  0.00000000E+00
  0.00000000E+00  0.00000000E+00  0.00000000E+00
  0.00000000E+00  0.00000000E+00  0.00000000E+00
  0.00000000E+00  0.00000000E+00  0.00000000E+00
  0.00000000E+00  0.00000000E+00  0.00000000E+00
  0.00000000E+00  0.00000000E+00  0.00000000E+00
  0.00000000E+00  0.00000000E+00  0.00000000E+00
  0.00000000E+00  0.00000000E+00  0.00000000E+00
  0.00000000E+00  0.00000000E+00  0.00000000E+00
  0.00000000E+00  0.00000000E+00  0.00000000E+00
  0.00000000E+00  0.00000000E+00  0.00000000E+00
  0.00000000E+00  0.00000000E+00  0.00000000E+00
  0.00000000E+00  0.00000000E+00  0.00000000E+00
  0.00000000E+00  0.00000000E+00  0.00000000E+00
  0.00000000E+00  0.00000000E+00  0.00000000E+00
  0.00000000E+00  0.00000000E+00  0.00000000E+00
  0.00000000E+00  0.00000000E+00  0.00000000E+00
  0.00000000E+00  0.00000000E+00  0.00000000E+00
  0.00000000E+00  0.00000000E+00  0.00000000E+00
  0.00000000E+00  0.00000000E+00  0.00000000E+00
  0.00000000E+00  0.00000000E+00  0.00000000E+00
  0.00000000E+00  0.00000000E+00  0.00000000E+00
  0.00000000E+00  0.00000000E+00  0.00000000E+00
  0.00000000E+00  0.00000000E+00  0.00000000E+00
  0.00000000E+00  0.00000000E+00  0.00000000E+00
  0.00000000E+00  0.00000000E+00  0.00000000E+00
  0.00000000E+00  0.00000000E+00  0.00000000E+00
  0.00000000E+00  0.00000000E+00  0.00000000E+00
  0.00000000E+00  0.00000000E+00  0.00000000E+00
  0.00000000E+00  0.00000000E+00  0.00000000E+00
  0.00000000E+00  0.00000000E+00  0.00000000E+00
  0.00000000E+00  0.00000000E+00  0.00000000E+00
  0.00000000E+00  0.00000000E+00  0.00000000E+00
  0.00000000E+00  0.00000000E+00  0.00000000E+00
  0.00000000E+00  0.00000000E+00  0.00000000E+00
  0.00000000E+00  0.00000000E+00  0.00000000E+00
  0.00000000E+00  0.00000000E+00  0.00000000E+00
  0.00000000E+00  0.00000000E+00  0.00000000E+00
  0.00000000E+00  0.00000000E+00  0.00000000E+00
  0.00000000E+00  0.00000000E+00  0.00000000E+00
  0.00000000E+00  0.00000000E+00  0.00000000E+00
  0.00000000E+00  0.00000000E+00  0.00000000E+00
  0.00000000E+00  0.00000000E+00  0.00000000E+00
  0.00000000E+00  0.00000000E+00  0.00000000E+00
  0.00000000E+00  0.00000000E+00  0.00000000E+00
  0.00000000E+00  0.00000000E+00  0.00000000E+00
  0.00000000E+00  0.00000000E+00  0.00000000E+00
  0.00000000E+00  0.00000000E+00  0.00000000E+00
  0.00000000E+00  0.00000000E+00  0.00000000E+00
  0.00000000E+00  0.00000000E+00  0.00000000E+00
  0.00000000E+00  0.00000000E+00  0.00000000E+00
  0.00000000E+00  0.00000000E+00  0.00000000E+00
  0.00000000E+00  0.00000000E+00  0.00000000E+00
  0.00000000E+00  0.00000000E+00  0.00000000E+00
  0.00000000E+00  0.00000000E+00  0.00000000E+00
  0.00000000E+00  0.00000000E+00  0.00000000E+00
