System
1.0
11.400938747708212 -0.127046185305991 -0.2333408100202317
-5.717220176732502 9.997921982161543 0.0770862630575056
0.0362140596339119 0.0921245990614989 9.263612084811271
Li Mn Co Ni O 
11 12 8 12 64 
direct
0.170212405202772 0.3343283518366958 0.897491863050711 Li
0.1665843035900046 0.8383620496874908 0.8975397540071574 Li
0.6752466329933158 0.3397895099195268 0.8949691802169029 Li
0.666296865915165 0.8342101271452645 0.8984241330832698 Li
0.4999580801861617 0.5022549917259217 0.4940950745380341 Li
0.4965821317167661 0.9913391139010304 0.4944431103547341 Li
0.993247132994347 0.4984048776852008 0.4957805414318067 Li
0.3317080618842896 0.1652127735052958 0.396784589152437 Li
0.3276809570733359 0.6611467389724832 0.4070655792378023 Li
0.8321559226337311 0.1632790995197246 0.399432797039476 Li
0.8309718349671463 0.6653279640822984 0.4040643317857692 Li
0.0819853548567672 0.4140637308334996 0.2073680375215393 Mn
0.0856542291663322 0.9184639488765937 0.2087637394237686 Mn
0.5867382890718638 0.4176500736958075 0.2074895100843507 Mn
0.5854459554386758 0.9138719294304587 0.2141645027612527 Mn
0.0862472195312232 0.1673204928665041 0.2065371911656963 Mn
0.0836696828328472 0.6689303895529786 0.2098577413771623 Mn
0.5866876468506633 0.1716188518821512 0.2101599614305416 Mn
0.5850619805971213 0.6694473422698035 0.2091739172758507 Mn
0.1713523812925538 0.0830264143524339 0.7022016841794867 Mn
0.1620868435371021 0.5810009076403042 0.7259938192471355 Mn
0.6720600174584125 0.0809904738661742 0.710402989963034 Mn
0.6657564706918738 0.5847542185415183 0.7252281618177309 Mn
0.1663064847541784 0.3272716369644657 0.4812252750848514 Co
0.1685519673207691 0.8330421844565613 0.4849817041962839 Co
0.6662110307338485 0.3286151062197065 0.4806375013443874 Co
0.6713503506203012 0.8337065669309617 0.4855808577776821 Co
0.3439740895319803 0.1773692907671062 0.9790663076842272 Co
0.3323643174135594 0.6663865105300185 0.9867692618314735 Co
0.8447584303616463 0.171012312938568 0.9814294737398784 Co
0.8409521598519056 0.6744586768853773 0.9852328246437891 Co
0.4218973564227236 0.0901876145068756 0.7093308969249377 Ni
0.4127723941094777 0.5829162068694465 0.7200163321315705 Ni
0.9213354767601613 0.0868517591770208 0.7052900089336456 Ni
0.9136086444704872 0.5844580999130212 0.7201037887548647 Ni
0.3312488611085644 0.4183343337175705 0.203074100928958 Ni
0.3309037947580239 0.9137952608912143 0.2113390624638996 Ni
0.8323979320583269 0.4178473110414632 0.204088184893169 Ni
0.8343833463105624 0.9164671423145438 0.2101029685789202 Ni
0.4154324174779757 0.333458427657139 0.7146522893800634 Ni
0.409212804835589 0.8267466575338295 0.7147887364733875 Ni
0.9129480251284939 0.3308069340836843 0.717147593383363 Ni
0.9143098565588176 0.8326813166778092 0.7087984806980705 Ni
0.1735674126355068 0.0877822323098887 0.1015341929441339 O
0.1710087517500997 0.5856582205298863 0.1107029347917094 O
0.6670509902145944 0.0827063777592687 0.1010916095021915 O
0.6700215349842583 0.5864874111384502 0.1059546810861577 O
0.4171157207428322 0.3264055565072728 0.0926297587546514 O
0.4180505527402408 0.8363285357344818 0.0965267851948941 O
0.9203367711000017 0.330726752367396 0.0933117695563706 O
0.9207154234361831 0.8305373768528789 0.0981396158978213 O
0.3413227199276001 0.1758364722445317 0.6060683509938907 O
0.3273532170054869 0.6613952231881062 0.6175281793065227 O
0.8385035250814965 0.1716729535664786 0.6093216385500017 O
0.8306480647277998 0.6655387429500065 0.6162166514245164 O
0.2676916866578331 0.0279506749318478 0.8379353676925156 O
0.2544095260558131 0.5198369976864332 0.8531656469192841 O
0.7639132955455487 0.022824796510151 0.84220449869935 O
0.7590314550911538 0.5241912615736826 0.8511988333232616 O
0.2606650232751812 0.2399319688709927 0.8348062982358331 O
0.2468958788269772 0.7293056685943741 0.8565603588488407 O
0.7599240982494947 0.2368094808555598 0.8400291876882046 O
0.7519136567885907 0.7342970771469093 0.8523288843186232 O
0.3331814239997523 0.4131018514631302 0.5946604904204864 O
0.3307872669031363 0.9083191040417891 0.5913661777957189 O
0.829753889346139 0.4100609619333083 0.5978964862904569 O
0.8254607318385676 0.9098806374297381 0.5907954763354232 O
0.2405527299258091 0.2619286942181618 0.3399606966530619 O
0.2291994167714945 0.7491251534151762 0.3507240061176229 O
0.7363595752698946 0.2567091351711764 0.3431911818382634 O
0.7295325032577283 0.7493084274603504 0.3481887882447496 O
0.0189914687631789 0.2568432441466616 0.3364624561735292 O
0.0192877654122931 0.7603311663742656 0.338009443033957 O
0.5184454310093572 0.2581299395075258 0.3337940517538496 O
0.5177044596992251 0.7578843857022377 0.3408182580883288 O
0.0915280309666383 0.1719141442869893 0.5932867384568509 O
0.080668908288874 0.662158308264731 0.6036948151119712 O
0.5832860454924846 0.15969614607598 0.5932762119261646 O
0.5830332226467804 0.6643344384573573 0.6031962018192086 O
0.0024157379540232 0.0008074271560194 0.8004352858188205 O
0.9901647381842273 0.4934913940916177 0.8180415197979924 O
0.500455148413069 0.9980821773419463 0.8013604090701792 O
0.4919079393163913 0.4948960319404986 0.8170508608735528 O
0.0122928117376342 0.0062415244770603 0.3103410889483512 O
-0.0037971687963927 0.4970742274851292 0.3035802738448093 O
0.4999924073110558 1.0005909109486617 0.304648572771717 O
0.4982206949522461 0.4970303435528771 0.3019832836720882 O
0.1655370547502406 0.3360292828931938 0.1027481219939322 O
0.168606825849632 0.8342031770591207 0.1063153590181501 O
0.6691732358896174 0.3359872652511827 0.103254837302461 O
0.6584297384633369 0.8305761982909575 0.1041184351279424 O
0.4850080077995967 0.2542174540329442 0.8439271298326736 O
0.4747422197281188 0.7454331228233011 0.8526869377249455 O
0.9836654654223862 0.2487778273230109 0.8447287933376455 O
0.9799543021518775 0.7492985770943544 0.8499180668211024 O
0.0771944582576121 0.417255378681352 0.6066980467897187 O
0.0981660168155705 0.9166857048317366 0.5977622586281347 O
0.5798178222645135 0.4196039697435796 0.6071952881727787 O
0.5924497523447992 0.9197840147652321 0.5964984630410884 O
0.2297495354390824 0.4747224801613788 0.3506728778088445 O
0.2429674189282021 0.9778567727914271 0.3429750902546403 O
0.7343383783853623 0.4779546226341518 0.3461861820838305 O
0.7337832266440006 0.9776927249980676 0.3474618640832878 O
0.4270225502720787 0.0934985247955162 0.0861317106085701 O
0.4159486353509853 0.5910598912948125 0.096861034349972 O
0.9203620075052298 0.0948905432648313 0.0948217821591733 O
0.9216255634182827 0.5931859069972608 0.0948101554408393 O
