System                                  
   1.0000000000000000     
   -14.0834960421691697    2.7579724295697412  -10.3769642245303881
    -7.9063191081636051    0.9656683706721295   -2.9566229202137011
    -7.5600809260044510    3.7460999388255725   -5.0271851324442158
  Ca              Ag            
     2     1
Direct
     0.6553337804018736    0.8109426324290244    0.1892625065388392
     0.3446392457726238    0.1890781215458713    0.8107549209120265
     0.4999996323092235   -0.0000066224236135    0.9999992667363937

 -0.00000000E+00  0.00000000E+00 -0.00000000E+00
 -0.00000000E+00  0.00000000E+00 -0.00000000E+00
 -0.00000000E+00  0.00000000E+00 -0.00000000E+00
