System                                  
   1.0000000000000000     
    11.3414376695480694   -0.0647836135991604   -0.2488026780888000
    -5.6337010728795018    9.9288513910399363    0.0710431474792025
     0.0222419509143507    0.0786910209071783    9.2036924770866690
  Li              Mn              Co              Ni              O             
     3    12     8    12    64
Direct
     0.3354194498705884    0.1657927914735742    0.3989417973174926
     0.3362287226283107    0.6655644290906785    0.4031451833848755
     0.8372741975730725    0.1664951260499864    0.4028313226857135
     0.0835529182229904    0.4180157839524284    0.2132805343363398
     0.0810547757285832    0.9149562666011387    0.2099451886323565
     0.5831366562962532    0.4157528919191484    0.2061889708194414
     0.5830334220337838    0.9168267090258804    0.2098708395238550
     0.0841733396891886    0.1681808359498130    0.2104718396892595
     0.0824018702596454    0.6672561796506382    0.2132216693427039
     0.5841641637019792    0.1672166202458378    0.2092224907310789
     0.5839966105487384    0.6680900706431466    0.2075336978968830
     0.1631104541208037    0.0774863993926266    0.7110413795345607
     0.1691221813938439    0.5836830294127843    0.7130694908252715
     0.6695798815265672    0.0840660641637084    0.7122605198688988
     0.6642976867647794    0.5782684486092698    0.7072274736881334
     0.1687905508126325    0.3294942670445760    0.4864458299670097
     0.1649128054304527    0.8317627982386606    0.4884460798553512
     0.6680390491779010    0.3338183551083710    0.4872977770288930
     0.6704720719016531    0.8294044830256003    0.4853052036747965
     0.3361624581656903    0.1662169458142024    0.9834321082490598
     0.3380406793621734    0.6713851529324342    0.9843759177633753
     0.8369614240421316    0.1715456761468421    0.9851836253394886
     0.8338739826670333    0.6642696789893465    0.9841113454827118
     0.4153483941436519    0.0832421980955231    0.7098845092324803
     0.4202252603597182    0.5869495431667228    0.7137980185567044
     0.9205788762074809    0.0874127142547036    0.7159349119155431
     0.9148057401772968    0.5836567368440714    0.7090114486546631
     0.3314787023080368    0.4163370289279236    0.2069568413511068
     0.3305787288528904    0.9154679209835247    0.2135848513049465
     0.8304581594219502    0.4153922648634382    0.2137646663504163
     0.8306652693246014    0.9152151204195108    0.2103957244920817
     0.4126449805518024    0.3277434049327316    0.7086263384368136
     0.4182382665572246    0.8348489046657750    0.7138315647575590
     0.9186777735018539    0.3347304147382693    0.7145384055242928
     0.9120068715355359    0.8269292509141637    0.7084861510839107
     0.1692165681995673    0.0850753354332280    0.1037436226765334
     0.1693219336161086    0.5862910038863818    0.1095567234130219
     0.6690926241265801    0.0857048888998851    0.1062287156466423
     0.6667854473733978    0.5835250364750396    0.0990757942166161
     0.4175047449523631    0.3281803554607951    0.0939653284354594
     0.4182271023520450    0.8387197720381903    0.0982874602167567
     0.9170223541031476    0.3380655958260957    0.1005197732768913
     0.9171793124708548    0.8354284611090231    0.0942689303478107
     0.3315458666828300    0.1642216442580823    0.6073642684689423
     0.3379533129058582    0.6721084405500053    0.6122982736666135
     0.8380277925124818    0.1720207379886870    0.6120995615975569
     0.8319324191829384    0.6648836341072777    0.6065108498357813
     0.2633821636678645    0.0197814219044073    0.8399160094183041
     0.2650677708541069    0.5267004746364667    0.8440003087133933
     0.7651303560593475    0.0270562829973647    0.8443092293752551
     0.7627909978730311    0.5190152741539723    0.8376333823447069
     0.2607939513575419    0.2359693053622545    0.8377977401536779
     0.2641241848237961    0.7421389169838315    0.8401860444144277
     0.7635701084401323    0.2423156977895111    0.8397069556354779
     0.7603350533316774    0.7349682839361288    0.8371046670271231
     0.3205218042817888    0.4057388749619215    0.5968357579340023
     0.3338813898597182    0.9182752556788678    0.5920842974392131
     0.8333270169050183    0.4180725108902194    0.5915704865463282
     0.8205018132139742    0.9053810336587539    0.5966232193655250
     0.2351593721758033    0.2541548902735009    0.3457109143142551
     0.2391216574069164    0.7596196482863509    0.3454292284915280
     0.7416106074062725    0.2611553934698608    0.3422148479845951
     0.7399296483572123    0.7591363083197429    0.3408830648256641
     0.0207057690118976    0.2596742460739260    0.3407984413206177
     0.0213102654424200    0.7609992587447938    0.3412552171366550
     0.5212964629197298    0.2600592779845290    0.3386688303227580
     0.5213708248656395    0.7597955427980699    0.3387051028157022
     0.0808421994903613    0.1603862490989079    0.5982964938370534
     0.0860187252325261    0.6713373220096976    0.5991260474058911
     0.5864945552093530    0.1714771731906113    0.5974572079434960
     0.5821792252532196    0.6615768048346223    0.5949002478399225
     0.9972290197520955    0.9924133977072893    0.8105445992189099
     0.9995990228008009    0.5008670561898457    0.8104099247491973
     0.4997460378370440    0.0010723036639814    0.8101190397234181
     0.4971389708522830    0.4927146893354158    0.8084814735642414
     0.9974151135109041    0.9980943504743143    0.3109168857534980
     0.9969148307232837    0.4987566177035664    0.3153816588703650
     0.4991670781884383    0.9993756699806310    0.3134560428664482
     0.4986708142143131    0.4982415101820316    0.3070566114942651
     0.1654898095816960    0.3351170935795385    0.1078363791203423
     0.1661957886954906    0.8334830293014163    0.1082621372524270
     0.6684192248663878    0.3338300652755532    0.1059214120553331
     0.6668496553482521    0.8353397727358760    0.1060758905927088
     0.4787324145974741    0.2378314906567236    0.8390092568916128
     0.4834376145216434    0.7543911224701652    0.8522868759324436
     0.9828731198204869    0.2534399532624259    0.8534867707691279
     0.9775017307205390    0.7373280543101745    0.8397667385796408
     0.0844099505213909    0.4182277435314027    0.6019810210065214
     0.0801493604981169    0.9143012774788184    0.5971499940041940
     0.5797476181705176    0.4148554246426120    0.5940315081581852
     0.5859164412367155    0.9182060759786363    0.6006881660325886
     0.2358034674984879    0.4777227754590889    0.3490238375687914
     0.2365404442702846    0.9771160411019447    0.3444840125869395
     0.7377374625925180    0.4752867304504158    0.3418627024531928
     0.7400226132861007    0.9775484907792206    0.3432729732764255
     0.4167182871946980    0.0853631916842029    0.1005157573043498
     0.4179223149930354    0.5930822647019377    0.0973011457441290
     0.9166643489540232    0.0889387567027733    0.1002532117277706
     0.9146563588581281    0.5848393989921529    0.1020768800780860

  0.00000000E+00  0.00000000E+00  0.00000000E+00
  0.00000000E+00  0.00000000E+00  0.00000000E+00
  0.00000000E+00  0.00000000E+00  0.00000000E+00
  0.00000000E+00  0.00000000E+00  0.00000000E+00
  0.00000000E+00  0.00000000E+00  0.00000000E+00
  0.00000000E+00  0.00000000E+00  0.00000000E+00
  0.00000000E+00  0.00000000E+00  0.00000000E+00
  0.00000000E+00  0.00000000E+00  0.00000000E+00
  0.00000000E+00  0.00000000E+00  0.00000000E+00
  0.00000000E+00  0.00000000E+00  0.00000000E+00
  0.00000000E+00  0.00000000E+00  0.00000000E+00
  0.00000000E+00  0.00000000E+00  0.00000000E+00
  0.00000000E+00  0.00000000E+00  0.00000000E+00
  0.00000000E+00  0.00000000E+00  0.00000000E+00
  0.00000000E+00  0.00000000E+00  0.00000000E+00
  0.00000000E+00  0.00000000E+00  0.00000000E+00
  0.00000000E+00  0.00000000E+00  0.00000000E+00
  0.00000000E+00  0.00000000E+00  0.00000000E+00
  0.00000000E+00  0.00000000E+00  0.00000000E+00
  0.00000000E+00  0.00000000E+00  0.00000000E+00
  0.00000000E+00  0.00000000E+00  0.00000000E+00
  0.00000000E+00  0.00000000E+00  0.00000000E+00
  0.00000000E+00  0.00000000E+00  0.00000000E+00
  0.00000000E+00  0.00000000E+00  0.00000000E+00
  0.00000000E+00  0.00000000E+00  0.00000000E+00
  0.00000000E+00  0.00000000E+00  0.00000000E+00
  0.00000000E+00  0.00000000E+00  0.00000000E+00
  0.00000000E+00  0.00000000E+00  0.00000000E+00
  0.00000000E+00  0.00000000E+00  0.00000000E+00
  0.00000000E+00  0.00000000E+00  0.00000000E+00
  0.00000000E+00  0.00000000E+00  0.00000000E+00
  0.00000000E+00  0.00000000E+00  0.00000000E+00
  0.00000000E+00  0.00000000E+00  0.00000000E+00
  0.00000000E+00  0.00000000E+00  0.00000000E+00
  0.00000000E+00  0.00000000E+00  0.00000000E+00
  0.00000000E+00  0.00000000E+00  0.00000000E+00
  0.00000000E+00  0.00000000E+00  0.00000000E+00
  0.00000000E+00  0.00000000E+00  0.00000000E+00
  0.00000000E+00  0.00000000E+00  0.00000000E+00
  0.00000000E+00  0.00000000E+00  0.00000000E+00
  0.00000000E+00  0.00000000E+00  0.00000000E+00
  0.00000000E+00  0.00000000E+00  0.00000000E+00
  0.00000000E+00  0.00000000E+00  0.00000000E+00
  0.00000000E+00  0.00000000E+00  0.00000000E+00
  0.00000000E+00  0.00000000E+00  0.00000000E+00
  0.00000000E+00  0.00000000E+00  0.00000000E+00
  0.00000000E+00  0.00000000E+00  0.00000000E+00
  0.00000000E+00  0.00000000E+00  0.00000000E+00
  0.00000000E+00  0.00000000E+00  0.00000000E+00
  0.00000000E+00  0.00000000E+00  0.00000000E+00
  0.00000000E+00  0.00000000E+00  0.00000000E+00
  0.00000000E+00  0.00000000E+00  0.00000000E+00
  0.00000000E+00  0.00000000E+00  0.00000000E+00
  0.00000000E+00  0.00000000E+00  0.00000000E+00
  0.00000000E+00  0.00000000E+00  0.00000000E+00
  0.00000000E+00  0.00000000E+00  0.00000000E+00
  0.00000000E+00  0.00000000E+00  0.00000000E+00
  0.00000000E+00  0.00000000E+00  0.00000000E+00
  0.00000000E+00  0.00000000E+00  0.00000000E+00
  0.00000000E+00  0.00000000E+00  0.00000000E+00
  0.00000000E+00  0.00000000E+00  0.00000000E+00
  0.00000000E+00  0.00000000E+00  0.00000000E+00
  0.00000000E+00  0.00000000E+00  0.00000000E+00
  0.00000000E+00  0.00000000E+00  0.00000000E+00
  0.00000000E+00  0.00000000E+00  0.00000000E+00
  0.00000000E+00  0.00000000E+00  0.00000000E+00
  0.00000000E+00  0.00000000E+00  0.00000000E+00
  0.00000000E+00  0.00000000E+00  0.00000000E+00
  0.00000000E+00  0.00000000E+00  0.00000000E+00
  0.00000000E+00  0.00000000E+00  0.00000000E+00
  0.00000000E+00  0.00000000E+00  0.00000000E+00
  0.00000000E+00  0.00000000E+00  0.00000000E+00
  0.00000000E+00  0.00000000E+00  0.00000000E+00
  0.00000000E+00  0.00000000E+00  0.00000000E+00
  0.00000000E+00  0.00000000E+00  0.00000000E+00
  0.00000000E+00  0.00000000E+00  0.00000000E+00
  0.00000000E+00  0.00000000E+00  0.00000000E+00
  0.00000000E+00  0.00000000E+00  0.00000000E+00
  0.00000000E+00  0.00000000E+00  0.00000000E+00
  0.00000000E+00  0.00000000E+00  0.00000000E+00
  0.00000000E+00  0.00000000E+00  0.00000000E+00
  0.00000000E+00  0.00000000E+00  0.00000000E+00
  0.00000000E+00  0.00000000E+00  0.00000000E+00
  0.00000000E+00  0.00000000E+00  0.00000000E+00
  0.00000000E+00  0.00000000E+00  0.00000000E+00
  0.00000000E+00  0.00000000E+00  0.00000000E+00
  0.00000000E+00  0.00000000E+00  0.00000000E+00
  0.00000000E+00  0.00000000E+00  0.00000000E+00
  0.00000000E+00  0.00000000E+00  0.00000000E+00
  0.00000000E+00  0.00000000E+00  0.00000000E+00
  0.00000000E+00  0.00000000E+00  0.00000000E+00
  0.00000000E+00  0.00000000E+00  0.00000000E+00
  0.00000000E+00  0.00000000E+00  0.00000000E+00
  0.00000000E+00  0.00000000E+00  0.00000000E+00
  0.00000000E+00  0.00000000E+00  0.00000000E+00
  0.00000000E+00  0.00000000E+00  0.00000000E+00
  0.00000000E+00  0.00000000E+00  0.00000000E+00
  0.00000000E+00  0.00000000E+00  0.00000000E+00
  0.00000000E+00  0.00000000E+00  0.00000000E+00
