System                                  
   1.0000000000000000     
     3.5610021854665415   -2.0591544482707769    0.0000029703665225
     3.5610625654765187    2.0592591113058551    0.0000017745933795
     0.0000049596554663    0.0000000034547182    8.5101887576087254
  Y               Pb            
     2     2
Direct
    -0.0000001611892032    0.0000000010171192   -0.0000014373452628
    -0.0000000871796205   -0.0000001627313583    0.4999981839945657
     0.6665056188069634    0.6665015116395330    0.2500196790919152
     0.3334946295618604    0.3334986500747062    0.7499835742587813

  0.00000000E+00  0.00000000E+00  0.00000000E+00
  0.00000000E+00  0.00000000E+00  0.00000000E+00
  0.00000000E+00  0.00000000E+00  0.00000000E+00
  0.00000000E+00  0.00000000E+00  0.00000000E+00
