System
1.0
9.897317950528732 -0.0029271268046785 -0.0007080970859342
0.0041209076868966 12.699359464741258 -0.0001603373987241
0.0006672815599464 0.000126383522056 9.369809233586876
Li Fe P O 
3 16 16 64 
direct
0.2320029455829661 0.128533349759496 0.1714313622481762 Li
0.735212031217051 0.1270827639711043 0.1775064922685823 Li
0.015725866761319 0.6251659030087804 0.6810008552604289 Li
0.0045875346420388 0.0040065937509628 0.9849582742804921 Fe
0.0069750880038132 0.5024549876692411 0.0025885431234662 Fe
0.5017849600866799 0.0024015767094566 0.9910338473182521 Fe
0.5054993457091901 0.5026230782911868 0.0023757040634131 Fe
-0.0035614865539728 0.2632993175432364 0.9940306053888964 Fe
0.9778242533657655 0.7550164145878636 0.0234549589772356 Fe
0.4979045048972391 0.2514598828233802 0.9964417719242679 Fe
0.4821406907394923 0.7646587355981947 0.0114195696047994 Fe
0.2665106800187744 0.9907502065716443 0.5104731248911468 Fe
0.2350871216713341 0.5049920151039168 0.4804422332153604 Fe
0.7692662125322468 0.986880208063388 0.5128143177647343 Fe
0.7376488595879163 0.5025838487371245 0.4872705676152568 Fe
0.26122199040724 0.2556413572769212 0.5131179194493803 Fe
0.2502472302021376 0.7521954418420118 0.4964432991192866 Fe
0.7563524524877882 0.2512556122673615 0.5056878749132298 Fe
0.7432188443624069 0.7491442209872907 0.4953995930032482 Fe
0.2651350643708261 0.1219425026170882 0.8234406254448534 P
0.2711562222316562 0.6188658182518062 0.8255802140603442 P
0.7667939989704552 0.1297226041765527 0.8226564230632437 P
0.7696811707875381 0.6123951339153946 0.8286187341587699 P
0.0148275729240447 0.3739568758501345 0.6687087945825958 P
0.0220988178807493 0.8724016524245076 0.681174729410266 P
0.5162375947168996 0.3739562311567901 0.6770133300735409 P
0.5198747708226138 0.8682971275223443 0.6769342584206797 P
0.4838771658330117 0.1316164185314895 0.330356491741765 P
0.4786613344313068 0.6255020900087356 0.3193723253348906 P
0.9843916453239934 0.1261416862244478 0.3251464612345433 P
0.9767340283525353 0.628461937894282 0.3272456599259652 P
0.2377450831654044 0.3745808010965492 0.1752518282805582 P
0.2268850158903806 0.8810130565317208 0.1753921449376499 P
0.7343966349279288 0.3685802493855178 0.1761280567773331 P
0.7291032956244603 0.8850291186315583 0.1760912188777315 P
0.1132811429333469 0.1263054240233408 0.8832413833973805 O
0.119498114450626 0.6190396823653721 0.8655325570478966 O
0.6176838001634728 0.133883962101386 0.8791853252008426 O
0.6152612529463131 0.6133027379536529 0.8722166394362244 O
0.0334377174457443 0.3690102828157314 0.8358079108224402 O
0.0280326954702761 0.8783876094088837 0.8516370340660354 O
0.5312667997613995 0.372337397914522 0.8465696600452085 O
0.5281244335267131 0.8705503897610694 0.8448685889852198 O
0.2759785627710815 0.127104211334694 0.652929234715985 O
0.2945990806527981 0.6162514716222012 0.6563511956862911 O
0.780189314468578 0.125691707143857 0.652521449496084 O
0.7876061089631939 0.6156607025284607 0.6584069772050133 O
0.3654757883289652 0.3688667445349477 0.6245927586449779 O
0.3710315874851627 0.8799309138746157 0.6177173359739446 O
0.8640177901504603 0.3707834207602394 0.6136086589811528 O
0.8724147230753606 0.880966995130573 0.6257882968149694 O
0.0919038672619389 0.2807210169284515 0.6034749393302382 O
0.0836417702586049 0.7668213120200698 0.633734387936928 O
0.5964431063225236 0.280978830860571 0.6159987701948189 O
0.5770611623032667 0.7618288964033924 0.6251517102282016 O
0.0807643103637125 0.4785542611872985 0.6153833091377146 O
0.1038538288238576 0.9648291503215942 0.6191441411280222 O
0.5797690043711968 0.4780931791108571 0.6202204097896813 O
0.6049240110767016 0.9598455129428786 0.6164466608020214 O
0.4152095306657846 0.0322063091292788 0.3901649741898891 O
0.3994226777686393 0.529152939638557 0.3760732338100296 O
0.9144917428935208 0.0277275805574671 0.3864391808941465 O
0.8993420287556287 0.5302126158556177 0.3812327669813338 O
0.1633150471884157 0.273857018280749 0.1186723798238209 O
0.1467617582546015 0.786590916031136 0.1176105534330199 O
0.6624022614952557 0.2672851225196405 0.1213928440795879 O
0.6484355952468679 0.7914255646067683 0.1149424872943148 O
0.1377236807884213 0.128428729426723 0.3632331803917711 O
0.12748719363619 0.618597067476118 0.3844565914458728 O
0.6379730687551864 0.133845703746102 0.3691120473624477 O
0.6278483932637045 0.6151195651138438 0.3800071761945903 O
0.2236621683921666 0.3734907262179645 0.346813017438488 O
0.2201100079863078 0.8844659993574491 0.3426221491323884 O
0.7186202974616107 0.3729119349728844 0.3462773224608841 O
0.7231173556408819 0.8820917151751048 0.3436600890403405 O
0.4547135314356705 0.1331585130189298 0.1620279946493084 O
0.4744985327984413 0.6244125689616986 0.1481778309288063 O
0.9583195788489528 0.1259997709778048 0.1542768691475437 O
0.9680542427278288 0.6306107258755523 0.1588263068686138 O
0.3890844630389009 0.3695884875893654 0.1181390923620148 O
0.3759072546247438 0.8740819364811305 0.1173368838880057 O
0.8844435174748368 0.3646765936023154 0.1237033469677249 O
0.8796605263692666 0.8770998209560662 0.1147367133347717 O
0.3391966222991478 0.219174633339058 0.8849914474104669 O
0.3436689412024132 0.7182468428349537 0.8824538474309874 O
0.842240342292751 0.2273113200211447 0.8790674519692233 O
0.8422636811960088 0.7122672514821717 0.8866676970247764 O
0.1689219809826445 0.4737310087970332 0.1229688813250669 O
0.1618301336352139 0.9844416736140561 0.1164239976373179 O
0.6601426924496847 0.4649021612799914 0.1159043012586684 O
0.6686465289586646 0.9899304997070828 0.1235753947347726 O
0.4123342419754353 0.228481603317752 0.3928449785249145 O
0.4143987787885378 0.7272186916856966 0.3706476489540654 O
0.9082058095696197 0.2230546662058084 0.3824097400339466 O
0.9150897500343905 0.7286141945734437 0.3868768949446992 O
0.3315031583399649 0.0212544481319313 0.8745561997586206 O
0.3467990106031988 0.522733726805178 0.8874616927781777 O
0.838955850212158 0.031273471518699 0.8824105449447265 O
0.8400781277853301 0.5144287195697382 0.8835300257126143 O
