System                                  
   1.0000000000000000     
     9.8973179505287323   -0.0029271268046785   -0.0007080970859342
     0.0041209076868966   12.6993594647412582   -0.0001603373987241
     0.0006672815599464    0.0001263835220560    9.3698092335868761
  Li              Fe              P               O             
     7    16    16    64
Direct
     0.2400478381083133    0.1242714873505391    0.1691697239015308
     0.7369820312709455    0.1233121280676566    0.1802113024606124
     0.9796266963370007    0.8728687389675698    0.3210913512984798
     0.0068653937159446    0.6257198245106944    0.6758103572241569
     0.5129839898076692    0.6245516597177289    0.6777515402543527
     0.2677527753476893    0.3742388130248802    0.8354052718999024
     0.7671562434715120    0.3741484231363366    0.8286198055685082
     1.0001195806034575    0.9933696047936241    0.9866534963450501
     0.9961478570206211    0.5035985379800103    0.0124493581968449
     0.5018247482131860    0.0039600355358992    0.9907609866889323
     0.5014783770677632    0.4998551260150471    0.0105882239150486
     0.0013093528013156    0.2522911917863837    0.0011706447591866
     0.9981761868695209    0.7454236795483882    0.0024711374432793
     0.5001585693606245    0.2455087157180803    1.0001270246186738
     0.4875457915541416    0.7621377379609795    1.0089252536557625
     0.2642869243974934    0.9922553812063299    0.5139078219816747
     0.2331884927670206    0.5105325275199281    0.4755399765281339
     0.7566366320462441    0.9940271357103889    0.5081025939351704
     0.7320828812339530    0.5068781080687641    0.4841998670547342
     0.2647606886894371    0.2539007766991153    0.5093070400604518
     0.2488349754657015    0.7534801761459287    0.4972306729125494
     0.7610653029204064    0.2557864949185229    0.5028297396683492
     0.7395907814597905    0.7469573540019867    0.4928305661884508
     0.2602684014942870    0.1286915159228282    0.8235459481422758
     0.2682383993861588    0.6168297707981378    0.8242608679707564
     0.7669642131184250    0.1290316553191704    0.8184754012314429
     0.7634769559908148    0.6173484556076708    0.8290082077432310
     0.0221904178012709    0.3715087155654821    0.6722696078117399
     0.0159149431385843    0.8745623370070955    0.6742192947386676
     0.5183987122036482    0.3787430351621094    0.6756392726940503
     0.5148089698613085    0.8688112170950441    0.6773969981065256
     0.4865431716861359    0.1243919760945106    0.3367432374079214
     0.4756792000192585    0.6322873281653961    0.3164390335286254
     0.9899653091734444    0.1241630338532535    0.3252700394010047
     0.9779323985603170    0.6272453290243045    0.3257542268796979
     0.2378475189252579    0.3758966910572827    0.1794359731949104
     0.2319958148381275    0.8794753328094048    0.1729590694849527
     0.7373775383776946    0.3607863747780037    0.1759816479004845
     0.7307449184880739    0.8881799381057129    0.1733587588208423
     0.1084225802411275    0.1286807674994258    0.8848420893251165
     0.1162617952369859    0.6184527345006731    0.8621845403010778
     0.6189154945343992    0.1288725624521310    0.8691164310412771
     0.6087526148717485    0.6143900911502824    0.8768652140939592
     0.0491329081316661    0.3669527879492057    0.8402370080472080
     0.0257037165619335    0.8807115153364486    0.8422762934858201
     0.5427980409507959    0.3774449838250512    0.8435407630634246
     0.5232860385062291    0.8705389076611640    0.8450591815088823
     0.2721283274975662    0.1262386008035612    0.6525489922435517
     0.2935610723929813    0.6161837100539596    0.6558705559954282
     0.7834436871161607    0.1259228007513577    0.6481790577790086
     0.7806660489710952    0.6221064164403164    0.6615430193728574
     0.3644080141797026    0.3646105944332210    0.6366582313150719
     0.3646666195773237    0.8804842725235478    0.6218437153985946
     0.8685441752023437    0.3641283023714826    0.6348182896586616
     0.8671931439448921    0.8835075652259295    0.6159725581954437
     0.0977810913639757    0.2792782523652910    0.6043845868288786
     0.0776952217905428    0.7685140199935449    0.6275239085630209
     0.6036281668832604    0.2881781516058858    0.6143755375144694
     0.5708521941019284    0.7634979646680584    0.6224130949155865
     0.0847787998714426    0.4763008900491869    0.6179920370534429
     0.0970590687521619    0.9664400373077120    0.6097057050097392
     0.5691630851181638    0.4842756601196570    0.6173603407571910
     0.5991688534104602    0.9614031114019667    0.6182096857376970
     0.4174730850888081    0.0266012531682085    0.3996765320185527
     0.3984165348456453    0.5345857003253415    0.3748079296355390
     0.9213480795624210    0.0220881882548999    0.3794748423420258
     0.9069556934753434    0.5320362770042409    0.3897564446237585
     0.1682981324108974    0.2724089655617180    0.1232843450286945
     0.1560150988030527    0.7826662311285942    0.1234640247959899
     0.6714905389544604    0.2578214333393414    0.1239936018159549
     0.6535156379759562    0.7935840526686987    0.1114690894364367
     0.1434783770321666    0.1267366568364527    0.3624304056955295
     0.1299889564546236    0.6238491392842004    0.3874900230143520
     0.6424149546229221    0.1231769359103763    0.3767682428302086
     0.6229774854237220    0.6280334917119460    0.3721402887736688
     0.2274097276298155    0.3732169864703003    0.3510865604500083
     0.2104983525317665    0.8881950433272030    0.3413985227161274
     0.7279185946794096    0.3656529315766504    0.3435725721399446
     0.7235882819121864    0.8843583515853216    0.3423964509626320
     0.4545123590802309    0.1265690994735028    0.1725706277490514
     0.4713304044798643    0.6258657734290755    0.1440332452332063
     0.9621648948055950    0.1280743581228486    0.1549948071709181
     0.9725051410754445    0.6249297622251677    0.1612757390026173
     0.3868139753750763    0.3769379706316237    0.1203173063763783
     0.3817244756180962    0.8764252566582430    0.1183034930007549
     0.8867597630435069    0.3622740779448729    0.1151903165858420
     0.8848251310536752    0.8870683710785847    0.1254824914165326
     0.3259840165060280    0.2320206742307143    0.8757922788625944
     0.3443550996166224    0.7123553555951566    0.8851066123825779
     0.8389992443278217    0.2308644054513636    0.8746339641760429
     0.8341564342000939    0.7133126074303240    0.8906799251842775
     0.1626172437107339    0.4716583503370400    0.1266362246972838
     0.1625992578529644    0.9816621845395668    0.1119254305346040
     0.6603084806738976    0.4562196343422120    0.1143140563864982
     0.6672575933751069    0.9916422691039467    0.1206870988517825
     0.4215245775153416    0.2237779863782690    0.4021738922968681
     0.4043469348986047    0.7327644385755280    0.3620652880502156
     0.9146674425476107    0.2184015369936761    0.3890760607006456
     0.9181179471952714    0.7327711893331603    0.3792983043289389
     0.3318282773341866    0.0323232826148527    0.8809070463745049
     0.3376350530348624    0.5152561472092791    0.8843034936049060
     0.8433675917868505    0.0343978321448564    0.8815623662867600
     0.8320841412231996    0.5132785530135093    0.8785620543114228

  0.00000000E+00  0.00000000E+00  0.00000000E+00
  0.00000000E+00  0.00000000E+00  0.00000000E+00
  0.00000000E+00  0.00000000E+00  0.00000000E+00
  0.00000000E+00  0.00000000E+00  0.00000000E+00
  0.00000000E+00  0.00000000E+00  0.00000000E+00
  0.00000000E+00  0.00000000E+00  0.00000000E+00
  0.00000000E+00  0.00000000E+00  0.00000000E+00
  0.00000000E+00  0.00000000E+00  0.00000000E+00
  0.00000000E+00  0.00000000E+00  0.00000000E+00
  0.00000000E+00  0.00000000E+00  0.00000000E+00
  0.00000000E+00  0.00000000E+00  0.00000000E+00
  0.00000000E+00  0.00000000E+00  0.00000000E+00
  0.00000000E+00  0.00000000E+00  0.00000000E+00
  0.00000000E+00  0.00000000E+00  0.00000000E+00
  0.00000000E+00  0.00000000E+00  0.00000000E+00
  0.00000000E+00  0.00000000E+00  0.00000000E+00
  0.00000000E+00  0.00000000E+00  0.00000000E+00
  0.00000000E+00  0.00000000E+00  0.00000000E+00
  0.00000000E+00  0.00000000E+00  0.00000000E+00
  0.00000000E+00  0.00000000E+00  0.00000000E+00
  0.00000000E+00  0.00000000E+00  0.00000000E+00
  0.00000000E+00  0.00000000E+00  0.00000000E+00
  0.00000000E+00  0.00000000E+00  0.00000000E+00
  0.00000000E+00  0.00000000E+00  0.00000000E+00
  0.00000000E+00  0.00000000E+00  0.00000000E+00
  0.00000000E+00  0.00000000E+00  0.00000000E+00
  0.00000000E+00  0.00000000E+00  0.00000000E+00
  0.00000000E+00  0.00000000E+00  0.00000000E+00
  0.00000000E+00  0.00000000E+00  0.00000000E+00
  0.00000000E+00  0.00000000E+00  0.00000000E+00
  0.00000000E+00  0.00000000E+00  0.00000000E+00
  0.00000000E+00  0.00000000E+00  0.00000000E+00
  0.00000000E+00  0.00000000E+00  0.00000000E+00
  0.00000000E+00  0.00000000E+00  0.00000000E+00
  0.00000000E+00  0.00000000E+00  0.00000000E+00
  0.00000000E+00  0.00000000E+00  0.00000000E+00
  0.00000000E+00  0.00000000E+00  0.00000000E+00
  0.00000000E+00  0.00000000E+00  0.00000000E+00
  0.00000000E+00  0.00000000E+00  0.00000000E+00
  0.00000000E+00  0.00000000E+00  0.00000000E+00
  0.00000000E+00  0.00000000E+00  0.00000000E+00
  0.00000000E+00  0.00000000E+00  0.00000000E+00
  0.00000000E+00  0.00000000E+00  0.00000000E+00
  0.00000000E+00  0.00000000E+00  0.00000000E+00
  0.00000000E+00  0.00000000E+00  0.00000000E+00
  0.00000000E+00  0.00000000E+00  0.00000000E+00
  0.00000000E+00  0.00000000E+00  0.00000000E+00
  0.00000000E+00  0.00000000E+00  0.00000000E+00
  0.00000000E+00  0.00000000E+00  0.00000000E+00
  0.00000000E+00  0.00000000E+00  0.00000000E+00
  0.00000000E+00  0.00000000E+00  0.00000000E+00
  0.00000000E+00  0.00000000E+00  0.00000000E+00
  0.00000000E+00  0.00000000E+00  0.00000000E+00
  0.00000000E+00  0.00000000E+00  0.00000000E+00
  0.00000000E+00  0.00000000E+00  0.00000000E+00
  0.00000000E+00  0.00000000E+00  0.00000000E+00
  0.00000000E+00  0.00000000E+00  0.00000000E+00
  0.00000000E+00  0.00000000E+00  0.00000000E+00
  0.00000000E+00  0.00000000E+00  0.00000000E+00
  0.00000000E+00  0.00000000E+00  0.00000000E+00
  0.00000000E+00  0.00000000E+00  0.00000000E+00
  0.00000000E+00  0.00000000E+00  0.00000000E+00
  0.00000000E+00  0.00000000E+00  0.00000000E+00
  0.00000000E+00  0.00000000E+00  0.00000000E+00
  0.00000000E+00  0.00000000E+00  0.00000000E+00
  0.00000000E+00  0.00000000E+00  0.00000000E+00
  0.00000000E+00  0.00000000E+00  0.00000000E+00
  0.00000000E+00  0.00000000E+00  0.00000000E+00
  0.00000000E+00  0.00000000E+00  0.00000000E+00
  0.00000000E+00  0.00000000E+00  0.00000000E+00
  0.00000000E+00  0.00000000E+00  0.00000000E+00
  0.00000000E+00  0.00000000E+00  0.00000000E+00
  0.00000000E+00  0.00000000E+00  0.00000000E+00
  0.00000000E+00  0.00000000E+00  0.00000000E+00
  0.00000000E+00  0.00000000E+00  0.00000000E+00
  0.00000000E+00  0.00000000E+00  0.00000000E+00
  0.00000000E+00  0.00000000E+00  0.00000000E+00
  0.00000000E+00  0.00000000E+00  0.00000000E+00
  0.00000000E+00  0.00000000E+00  0.00000000E+00
  0.00000000E+00  0.00000000E+00  0.00000000E+00
  0.00000000E+00  0.00000000E+00  0.00000000E+00
  0.00000000E+00  0.00000000E+00  0.00000000E+00
  0.00000000E+00  0.00000000E+00  0.00000000E+00
  0.00000000E+00  0.00000000E+00  0.00000000E+00
  0.00000000E+00  0.00000000E+00  0.00000000E+00
  0.00000000E+00  0.00000000E+00  0.00000000E+00
  0.00000000E+00  0.00000000E+00  0.00000000E+00
  0.00000000E+00  0.00000000E+00  0.00000000E+00
  0.00000000E+00  0.00000000E+00  0.00000000E+00
  0.00000000E+00  0.00000000E+00  0.00000000E+00
  0.00000000E+00  0.00000000E+00  0.00000000E+00
  0.00000000E+00  0.00000000E+00  0.00000000E+00
  0.00000000E+00  0.00000000E+00  0.00000000E+00
  0.00000000E+00  0.00000000E+00  0.00000000E+00
  0.00000000E+00  0.00000000E+00  0.00000000E+00
  0.00000000E+00  0.00000000E+00  0.00000000E+00
  0.00000000E+00  0.00000000E+00  0.00000000E+00
  0.00000000E+00  0.00000000E+00  0.00000000E+00
  0.00000000E+00  0.00000000E+00  0.00000000E+00
  0.00000000E+00  0.00000000E+00  0.00000000E+00
  0.00000000E+00  0.00000000E+00  0.00000000E+00
  0.00000000E+00  0.00000000E+00  0.00000000E+00
  0.00000000E+00  0.00000000E+00  0.00000000E+00
