System                                  
   1.0000000000000000     
     5.0262838658187468   -2.5953061424329453    0.0384464209346403
     5.0262837119155366    2.5953073785049408    0.0384505031042339
     3.6534554143410358    0.0000016438007959    4.3188887824545734
  Li              Bi              F             
     1     1     6
Direct
     0.4999998657128479    0.4999997725804055    0.4999997113323092
    -0.0000013940346060   -0.0000018310263937   -0.0000014595224353
     0.8938550709746069    0.2500135161365747    0.6078184060614873
     0.2500136300049520    0.6078192593238028    0.8938548221746093
     0.6078193253016110    0.8938546156577751    0.2500130279262281
     0.1061466522048982    0.7499835635485056    0.3921844877982073
     0.7499831959443800    0.3921838748660893    0.1061471124338322
     0.3921836538913113    0.1061472289132387    0.7499838917957592

  0.00000000E+00  0.00000000E+00  0.00000000E+00
  0.00000000E+00  0.00000000E+00  0.00000000E+00
  0.00000000E+00  0.00000000E+00  0.00000000E+00
  0.00000000E+00  0.00000000E+00  0.00000000E+00
  0.00000000E+00  0.00000000E+00  0.00000000E+00
  0.00000000E+00  0.00000000E+00  0.00000000E+00
  0.00000000E+00  0.00000000E+00  0.00000000E+00
  0.00000000E+00  0.00000000E+00  0.00000000E+00
