System
1.0
9.96074 0.00011 -6e-05
4e-05 12.94709 0.00158
4e-05 -0.00102 9.42854
Li Mn P O 
8 16 16 64 
direct
0.5295374847394965 0.6211116169752822 0.6810111548406628 Li
0.2306676904245574 0.1220900934108575 0.1815233262978086 Li
0.7314518039638325 0.1218280673246987 0.1718540457725355 Li
0.4790154128084503 0.8750697928701346 0.3274864738051825 Li
0.9973592234601802 0.4077238906054697 0.2926258496694958 Li
0.9793472812080953 0.8750439682326154 0.3221462585428781 Li
0.2730136750996838 0.3757719544081284 0.8260091977205762 Li
0.7723818943264987 0.3779699231963344 0.8224947272130434 Li
0.5004490260401752 0.251500470293216 0.0003050425861099 Mn
0.4990840518270195 0.7466166741146024 0.0001348134879699 Mn
0.0016902976565039 0.2507696000424134 0.0030113977686551 Mn
0.0042635794169671 0.748739581261956 0.9967190722031166 Mn
0.2532821299426354 0.2489406657269821 0.5067630396506286 Mn
0.2487802639230489 0.7511490518792545 0.5001238411083497 Mn
0.7479953881632753 0.2491737376595947 0.5005290098257561 Mn
0.7534455823270183 0.7460071729879643 0.5037688889798799 Mn
0.0027961172428642 0.0045378071059619 0.9859109857093492 Mn
0.0177926359705833 0.5065406790733126 0.9887953738338483 Mn
0.4923468314963963 0.0027410383355443 0.9939462997334577 Mn
0.5033278064085218 0.498939112938579 0.0124626445156753 Mn
0.2534290036031934 0.5056006112583457 0.49368607489088 Mn
0.2464544409275679 0.9995796153653161 0.5147302626858311 Mn
0.75215085465657 0.5062615418671291 0.4897383425481637 Mn
0.7381358711334552 0.0021238114455259 0.4978215399223948 Mn
0.2402464345988062 0.3642036369010893 0.188140539209356 P
0.230360399919489 0.8822142360591892 0.1726910241425617 P
0.7358479423704845 0.3617191847248036 0.1858330643058364 P
0.7264230463596553 0.8806651401926062 0.1710733117348365 P
0.027482978164647 0.3793376031000519 0.6664385779289733 P
0.0180548764256375 0.86619952795645 0.68268129397479 P
0.5191845036479983 0.3815112521799887 0.6713737802294035 P
0.5090656499782181 0.8613467850466184 0.6839521741951703 P
0.2614813532435836 0.1351721790463997 0.8216369242564316 P
0.2705460823087121 0.6157383272009369 0.8236465673222428 P
0.7564364157011648 0.1356121556070165 0.8161434499192938 P
0.7704479651919728 0.617300852495563 0.8293042644882904 P
0.4773987562847003 0.1164450848956287 0.3292868569243761 P
0.4822796735321876 0.6337272335137818 0.3222872553534469 P
0.9788050882385917 0.1154224536546169 0.3294333822950019 P
0.9962336426449434 0.635419068811251 0.3151838304287587 P
0.0909264850089924 0.2816720489088706 0.6000581145096898 O
0.091804733647267 0.77149148628595 0.6204527319298067 O
0.5912934293198127 0.2891130868663216 0.6012820583648183 O
0.573404905463998 0.7610097727291868 0.6300446245352093 O
0.1741952886122333 0.2619275796608712 0.1410613360468274 O
0.1594992376768176 0.7907639214748892 0.0998821693681085 O
0.6667614795546124 0.261967428749167 0.1310140376848082 O
0.6540861865594189 0.7875649335737018 0.1023677035118815 O
0.3288516461547042 0.23487141824398 0.879445628571217 O
0.3501492656747514 0.7087096231820454 0.8834951253008958 O
0.8283910808368272 0.2331556214753223 0.8718433250173665 O
0.8427296000176793 0.7124361633706798 0.8957092734116532 O
0.4038888717520875 0.2098773692783514 0.3953551193977397 O
0.412179530002208 0.7336140716242746 0.3789619802046901 O
0.9051068134954223 0.2093042350925738 0.3967347808287536 O
0.9249916544939264 0.7327788627764691 0.3708108022081691 O
0.3349962950761963 0.0377658899419141 0.8713451438417782 O
0.3299365238811788 0.5139097746401137 0.8816603206656259 O
0.8278659052539803 0.0347625208686142 0.8625745251131958 O
0.8331946136928357 0.515639966810676 0.883020260044904 O
0.419354542484267 0.0145072502472131 0.3885152742789592 O
0.4047787901726169 0.5376146314225418 0.3777260352272676 O
0.9171113666996833 0.0133517458651607 0.3832956248776403 O
0.9239110069956162 0.5352313475802818 0.3604757992708883 O
0.3845372002260213 0.3715159768938254 0.12895627101809 O
0.3837991916400317 0.877236220299636 0.1380712871377223 O
0.8864517284622728 0.3608298671044163 0.1375059933175992 O
0.878509755427342 0.8770221628114571 0.1339034483085757 O
0.2725742997493864 0.1367128884909498 0.6531087071647335 O
0.2989262862988368 0.6180129101491791 0.6554820487939088 O
0.7622464405765673 0.1364841593719301 0.6473483546549945 O
0.7810509931409604 0.6232415173811993 0.6641216447206635 O
0.1141744432284819 0.1330903414371962 0.878400009917888 O
0.1216030297917873 0.6252611397530627 0.8663487316955204 O
0.6103322304684419 0.132927462880241 0.8792878146833741 O
0.6182901771442226 0.6217710194665965 0.8755561202850718 O
0.1308725512656171 0.1204895486948136 0.3683495547450912 O
0.1439718822530819 0.6324182266820697 0.3765616036746856 O
0.6307798164131209 0.1217803825176628 0.3628379324707317 O
0.6283803128319094 0.6300133920734081 0.3771095886794978 O
0.0584936223827898 0.3783769716757462 0.830166236934897 O
0.022265415088996 0.8633963619490318 0.8519339439078939 O
0.5466300192106087 0.3743301183536057 0.8364245571788784 O
0.5244491134502415 0.86294165003183 0.8545626374428955 O
0.22721702509734 0.3687432294425123 0.3613432238775378 O
0.2012161533455981 0.8742411816478871 0.3384129485938863 O
0.7314969341023397 0.3632216911455265 0.3561088032109951 O
0.6969348925796619 0.8757318917423363 0.3356235001098847 O
0.1490165319008837 0.4542850440934842 0.1448822136246598 O
0.1702437963429286 0.9852817736046311 0.1210547259545534 O
0.6644093439425445 0.4577798119203768 0.1333353904749421 O
0.6649856415620626 0.9826102891784926 0.1125833222570539 O
0.4477023405900678 0.1212663496816207 0.1643693551798171 O
0.4717009803476182 0.6339262779055532 0.154758034359872 O
0.9512358371827385 0.1221314602022272 0.164111338074023 O
0.990779122943882 0.6368427991936509 0.1459327341629155 O
0.3653118840073379 0.3758424057125512 0.6347596892997733 O
0.3630412946612166 0.8691028541763639 0.6235907712223002 O
0.8749765006144021 0.380573283431782 0.6327239198704688 O
0.8669345708310464 0.863718212686465 0.6356760090456426 O
0.0955724808853649 0.4762036653610295 0.5997010392451771 O
0.0842003889170448 0.9667836286759691 0.6353978516382364 O
0.5783442566197678 0.4836409726853276 0.617670804169653 O
0.5966886768297353 0.9543303788496301 0.6427757496936056 O
