System                                  
   1.0000000000000000     
    10.3626541995670749    0.6680397148495248    5.8900744478487770
     3.5100475804119782   10.0732086450450389    5.5779958001142633
    -0.2770176937874708    0.4281704396772118   11.5097365705302366
  Li              Mn              O             
    11    32    64
Direct
     0.0645320299285864    0.0635035753647519    0.0621345640376058
     0.0680592054894792    0.5690066324785854    0.0607890933775339
     0.5671529669905101    0.0664469641747946    0.0600215041474613
     0.5665252166375924    0.0745083074056285    0.5509176799173224
     0.5706109240352097    0.5716579915145380    0.0541081462361192
     0.4329553056225125    0.4291934877404383    0.9433832485063368
     0.4306949883870251    0.9258784744520434    0.4510610839891860
     0.4345846150926675    0.9317003039397627    0.9405857293673175
     0.9289314450411246    0.4326647205895426    0.4449332536798939
     0.9326098508661472    0.4380973822899201    0.9353623917717580
     0.9382414352627356    0.9321268130303203    0.9424363143584865
     0.2434439385568548    0.2449607974661031    0.0041166216473143
     0.2450897522275632    0.2442524654443259    0.5056016425186581
     0.2519623005931838    0.7464522211298557    0.0033173628061220
     0.2488371164211469    0.7529157571136033    0.5017217989227024
     0.7519162200462340    0.2534051404282525    0.9966425946873628
     0.7517194754179031    0.2483017035334661    0.4969562864022132
     0.7574795772947026    0.7548359313378704    0.9951426983812101
     0.7492270184323963    0.7528984192394256    0.4977479849277522
     0.2483772155851357    0.9976754509294327    0.2555748052376887
     0.2463755669144659    0.9942181609818549    0.7548016381438539
     0.2485992083071093    0.4990916823050577    0.2579630342547805
     0.2477641340822232    0.4981203181566112    0.7488149645949166
     0.7521275398527957    0.0011553584977275    0.2487025380811517
     0.7522752841526756    0.0024590947690862    0.7455989894199112
     0.7511217568123786    0.5031821582516167    0.2458619657198803
     0.7518286367653597    0.5045783648787190    0.7437322732061277
     0.9977226501434368    0.2486253880681887    0.2519215121356842
     0.0002372152101141    0.2448958192465762    0.7501351566644306
     0.0016225743009647    0.7521869615752222    0.2533894786037174
     0.0035334167463543    0.7519587752396175    0.7449579122053264
     0.4976976414478664    0.2513049703536684    0.2518554919738589
     0.4964684336711959    0.2504522591607470    0.7489252931059820
     0.5033387679959189    0.7518151520301662    0.2490894508620737
     0.5008647684737907    0.7484568149545558    0.7505844920062397
     0.2442448554431730    0.2436529530482047    0.2602460053163450
     0.2440126863074625    0.2451132069386506    0.7562049298972815
     0.2547873363536876    0.7529412255414509    0.2468038894892012
     0.2475408872695919    0.7440678911589425    0.7568971144287632
     0.7533668344892315    0.2537462782083318    0.2435392854598057
     0.7510232636494873    0.2482520517025780    0.7471231259344387
     0.7519060697466511    0.7510067255291440    0.2494821706255065
     0.7533214916565294    0.7584869497418848    0.7391144719207455
     0.1330408392716116    0.1331018726869459    0.3526191087362959
     0.1309602494995602    0.1333730357234510    0.8565633595889189
     0.1453541529319578    0.6445776042468843    0.3470896667906395
     0.1326989164698346    0.6337682095264304    0.8543075612770157
     0.6416868354704465    0.1418297742765951    0.3467075780997961
     0.6374598392270595    0.1339147154182421    0.8509680059126191
     0.6433587042909042    0.6397840326856111    0.3421259746681779
     0.6406827118397630    0.6468130104461493    0.8489747386618907
     0.1236014312482213    0.3510638415169069    0.1366818760397018
     0.1207539213265698    0.3460084631394832    0.6398419404412645
     0.1444497383110937    0.8616862899538842    0.1197643007477397
     0.1234142108113551    0.8509135904260977    0.6402820561654906
     0.6422478731569030    0.3643737545487944    0.1175271983421219
     0.6442312106799433    0.3508366343209984    0.6236228855444849
     0.6404384452788614    0.8612697828360827    0.1206576043121152
     0.6394452084727196    0.8669322226960021    0.6195234893434325
     0.3511420979318499    0.1247858232251521    0.1397277001169321
     0.3557811482440947    0.1358547644893535    0.6323809723843148
     0.3657644688032556    0.6398854872943383    0.1262420725576290
     0.3513767039065494    0.6413251964624905    0.6311197453368657
     0.8624441230539901    0.1438793193012252    0.1200600744975718
     0.8519183441635119    0.1231760650673030    0.6385542744451339
     0.8657782334259788    0.6444446064747926    0.1201146115973049
     0.8553398398216703    0.6448919766456878    0.6266173399735434
     0.1314269575903670    0.1341076715434729    0.1306621377571411
     0.1312609420309981    0.1335827960932348    0.6324809793204524
     0.1390232540309347    0.6361518024414519    0.1290015695389994
     0.1327799890563936    0.6439524498251175    0.6239678019517151
     0.6385260085615604    0.1427588347464584    0.1195255857948116
     0.6402234648865739    0.1344066020969711    0.6212982962888977
     0.6503323148850016    0.6406794397108220    0.1092885054800253
     0.6387771864647410    0.6415053437711754    0.6243529658029360
     0.3558409237087321    0.3572672162847212    0.1550729588490489
     0.3534630467903966    0.3558442323184394    0.6579685399207623
     0.3663748015998284    0.8709621974118320    0.1470987103001675
     0.3572439076635155    0.8575892794885669    0.6539811721053508
     0.8677081547755001    0.3651375026170867    0.1438892902363657
     0.8669003761799046    0.3540486313045437    0.6467657436712158
     0.8635243032047111    0.8640985061986363    0.1484900191506125
     0.8647674828326447    0.8703199335411637    0.6464642802130728
     0.3556059986895820    0.1339897366445466    0.3825323631523028
     0.3546688012100798    0.1358642602551835    0.8822547283646114
     0.3644859888096855    0.6531652427186893    0.3715731802841257
     0.3596984188764901    0.6340748563440378    0.8810805003047434
     0.8772451117048486    0.1495784267382216    0.3593292667561778
     0.8742214288744824    0.1435587651776198    0.8683805361215994
     0.8599568462157721    0.6393877076924487    0.3761870107163193
     0.8766507311846142    0.6510686869607955    0.8613889444530493
     0.1351467491285483    0.3550923894970984    0.3779700491045998
     0.1341253903843468    0.3547560818766856    0.8810242955980891
     0.1501346886054707    0.8782486392361670    0.3581059816371067
     0.1386652755116443    0.8538812036524317    0.8812314377190784
     0.6494476546032484    0.3577540819333175    0.3684912227298873
     0.6429543359977481    0.3611791340939302    0.8680987736216902
     0.6376657860829018    0.8622718838915715    0.3707208198682576
     0.6487551783555264    0.8792272693966404    0.8599702115530039
     0.3565300781042861    0.3527468064813295    0.3842367552606814
     0.3559711454019611    0.3564248700204654    0.8833349532792596
     0.3539705684000458    0.8725203674704963    0.3815899119762226
     0.3636332236712068    0.8593129371408192    0.8770878206879550
     0.8685150610994337    0.3590011813097700    0.3734517568450503
     0.8663842368072356    0.3635657205876073    0.8689525056895020
     0.8597097768633103    0.8626731120554390    0.3754698636845182
     0.8682038474529733    0.8683716904231749    0.8687879043202715

  0.00000000E+00  0.00000000E+00  0.00000000E+00
  0.00000000E+00  0.00000000E+00  0.00000000E+00
  0.00000000E+00  0.00000000E+00  0.00000000E+00
  0.00000000E+00  0.00000000E+00  0.00000000E+00
  0.00000000E+00  0.00000000E+00  0.00000000E+00
  0.00000000E+00  0.00000000E+00  0.00000000E+00
  0.00000000E+00  0.00000000E+00  0.00000000E+00
  0.00000000E+00  0.00000000E+00  0.00000000E+00
  0.00000000E+00  0.00000000E+00  0.00000000E+00
  0.00000000E+00  0.00000000E+00  0.00000000E+00
  0.00000000E+00  0.00000000E+00  0.00000000E+00
  0.00000000E+00  0.00000000E+00  0.00000000E+00
  0.00000000E+00  0.00000000E+00  0.00000000E+00
  0.00000000E+00  0.00000000E+00  0.00000000E+00
  0.00000000E+00  0.00000000E+00  0.00000000E+00
  0.00000000E+00  0.00000000E+00  0.00000000E+00
  0.00000000E+00  0.00000000E+00  0.00000000E+00
  0.00000000E+00  0.00000000E+00  0.00000000E+00
  0.00000000E+00  0.00000000E+00  0.00000000E+00
  0.00000000E+00  0.00000000E+00  0.00000000E+00
  0.00000000E+00  0.00000000E+00  0.00000000E+00
  0.00000000E+00  0.00000000E+00  0.00000000E+00
  0.00000000E+00  0.00000000E+00  0.00000000E+00
  0.00000000E+00  0.00000000E+00  0.00000000E+00
  0.00000000E+00  0.00000000E+00  0.00000000E+00
  0.00000000E+00  0.00000000E+00  0.00000000E+00
  0.00000000E+00  0.00000000E+00  0.00000000E+00
  0.00000000E+00  0.00000000E+00  0.00000000E+00
  0.00000000E+00  0.00000000E+00  0.00000000E+00
  0.00000000E+00  0.00000000E+00  0.00000000E+00
  0.00000000E+00  0.00000000E+00  0.00000000E+00
  0.00000000E+00  0.00000000E+00  0.00000000E+00
  0.00000000E+00  0.00000000E+00  0.00000000E+00
  0.00000000E+00  0.00000000E+00  0.00000000E+00
  0.00000000E+00  0.00000000E+00  0.00000000E+00
  0.00000000E+00  0.00000000E+00  0.00000000E+00
  0.00000000E+00  0.00000000E+00  0.00000000E+00
  0.00000000E+00  0.00000000E+00  0.00000000E+00
  0.00000000E+00  0.00000000E+00  0.00000000E+00
  0.00000000E+00  0.00000000E+00  0.00000000E+00
  0.00000000E+00  0.00000000E+00  0.00000000E+00
  0.00000000E+00  0.00000000E+00  0.00000000E+00
  0.00000000E+00  0.00000000E+00  0.00000000E+00
  0.00000000E+00  0.00000000E+00  0.00000000E+00
  0.00000000E+00  0.00000000E+00  0.00000000E+00
  0.00000000E+00  0.00000000E+00  0.00000000E+00
  0.00000000E+00  0.00000000E+00  0.00000000E+00
  0.00000000E+00  0.00000000E+00  0.00000000E+00
  0.00000000E+00  0.00000000E+00  0.00000000E+00
  0.00000000E+00  0.00000000E+00  0.00000000E+00
  0.00000000E+00  0.00000000E+00  0.00000000E+00
  0.00000000E+00  0.00000000E+00  0.00000000E+00
  0.00000000E+00  0.00000000E+00  0.00000000E+00
  0.00000000E+00  0.00000000E+00  0.00000000E+00
  0.00000000E+00  0.00000000E+00  0.00000000E+00
  0.00000000E+00  0.00000000E+00  0.00000000E+00
  0.00000000E+00  0.00000000E+00  0.00000000E+00
  0.00000000E+00  0.00000000E+00  0.00000000E+00
  0.00000000E+00  0.00000000E+00  0.00000000E+00
  0.00000000E+00  0.00000000E+00  0.00000000E+00
  0.00000000E+00  0.00000000E+00  0.00000000E+00
  0.00000000E+00  0.00000000E+00  0.00000000E+00
  0.00000000E+00  0.00000000E+00  0.00000000E+00
  0.00000000E+00  0.00000000E+00  0.00000000E+00
  0.00000000E+00  0.00000000E+00  0.00000000E+00
  0.00000000E+00  0.00000000E+00  0.00000000E+00
  0.00000000E+00  0.00000000E+00  0.00000000E+00
  0.00000000E+00  0.00000000E+00  0.00000000E+00
  0.00000000E+00  0.00000000E+00  0.00000000E+00
  0.00000000E+00  0.00000000E+00  0.00000000E+00
  0.00000000E+00  0.00000000E+00  0.00000000E+00
  0.00000000E+00  0.00000000E+00  0.00000000E+00
  0.00000000E+00  0.00000000E+00  0.00000000E+00
  0.00000000E+00  0.00000000E+00  0.00000000E+00
  0.00000000E+00  0.00000000E+00  0.00000000E+00
  0.00000000E+00  0.00000000E+00  0.00000000E+00
  0.00000000E+00  0.00000000E+00  0.00000000E+00
  0.00000000E+00  0.00000000E+00  0.00000000E+00
  0.00000000E+00  0.00000000E+00  0.00000000E+00
  0.00000000E+00  0.00000000E+00  0.00000000E+00
  0.00000000E+00  0.00000000E+00  0.00000000E+00
  0.00000000E+00  0.00000000E+00  0.00000000E+00
  0.00000000E+00  0.00000000E+00  0.00000000E+00
  0.00000000E+00  0.00000000E+00  0.00000000E+00
  0.00000000E+00  0.00000000E+00  0.00000000E+00
  0.00000000E+00  0.00000000E+00  0.00000000E+00
  0.00000000E+00  0.00000000E+00  0.00000000E+00
  0.00000000E+00  0.00000000E+00  0.00000000E+00
  0.00000000E+00  0.00000000E+00  0.00000000E+00
  0.00000000E+00  0.00000000E+00  0.00000000E+00
  0.00000000E+00  0.00000000E+00  0.00000000E+00
  0.00000000E+00  0.00000000E+00  0.00000000E+00
  0.00000000E+00  0.00000000E+00  0.00000000E+00
  0.00000000E+00  0.00000000E+00  0.00000000E+00
  0.00000000E+00  0.00000000E+00  0.00000000E+00
  0.00000000E+00  0.00000000E+00  0.00000000E+00
  0.00000000E+00  0.00000000E+00  0.00000000E+00
  0.00000000E+00  0.00000000E+00  0.00000000E+00
  0.00000000E+00  0.00000000E+00  0.00000000E+00
  0.00000000E+00  0.00000000E+00  0.00000000E+00
  0.00000000E+00  0.00000000E+00  0.00000000E+00
  0.00000000E+00  0.00000000E+00  0.00000000E+00
  0.00000000E+00  0.00000000E+00  0.00000000E+00
  0.00000000E+00  0.00000000E+00  0.00000000E+00
  0.00000000E+00  0.00000000E+00  0.00000000E+00
  0.00000000E+00  0.00000000E+00  0.00000000E+00
  0.00000000E+00  0.00000000E+00  0.00000000E+00
