System
1.0
8.885703383514805 -0.0026292410296812 0.3292402203940281
7.5753961047613405 4.684480512454807 0.3217339339649605
-0.1374702914238382 -0.0568931621467949 11.043559139212652
Li V F 
2 8 28 
direct
0.0046686964159868 0.4977584741079467 0.2488068878391505 Li
0.9953383526324094 0.5022424303679733 0.751196100205045 Li
0.1473759595468577 0.6400207183516429 0.3997290070024769 V
0.1497671662400652 0.6383513310178659 0.899730650819358 V
0.6372489266319613 0.1510711418397326 0.1502163131877758 V
0.6341900976481987 0.1486580521124193 0.6480816621502199 V
0.3658094684700676 0.8513354114831659 0.3519323128448154 V
0.362751629376844 0.8489307634254191 0.8497802323525045 V
0.8502363048826485 0.3616424031267292 0.1002741546620883 V
0.852620337664366 0.360018863097428 0.6002737593852335 V
0.6422831852843373 0.5041977503094701 0.4467003063695515 F
0.6428669425873752 0.5011372662991883 0.9482627176333605 F
0.4980647130158381 0.6478629837675438 0.2003346117606362 F
0.5034249890707804 0.6397670464761543 0.697699125920077 F
0.2100956420199541 0.0713885860106968 0.0042728097510125 F
0.2046448133275181 0.0625124476022777 0.5039762507960619 F
0.0729740390906605 0.2074584048978617 0.2551140400758508 F
0.072845443654516 0.2059698028778529 0.7559903957030579 F
0.6223845218282086 0.7860392678330007 0.333323128517639 F
0.6219623362526114 0.7945028283599858 0.8463689130404993 F
0.7980966008507812 0.6178257616323402 0.0945739992090165 F
0.8146403309280902 0.5984622907487379 0.5985807002306979 F
0.9271530979377164 0.7940224676601922 0.2440172146917962 F
0.927033907021076 0.792529076908699 0.744903790883417 F
0.3780152211918363 0.2055112514073383 0.1536291210500245 F
0.3776682227038995 0.2139283939781242 0.6666766044254522 F
0.1162890974369358 0.8886561940265612 0.3748709279450432 F
0.1026999857692922 0.8964202897517207 0.8742326411959929 F
0.7953448729991893 0.9375252927168134 0.4960290022345649 F
0.7898892169266637 0.9286113217441916 0.9957425774760296 F
0.4965767553751762 0.3602225577315984 0.3022900442709731 F
0.5019870995402989 0.3520818197464444 0.799659603528244 F
0.3570861123109759 0.4989023399239532 0.0517366164986803 F
0.3577051462712115 0.4958164170527312 0.5532985731852978 F
0.1853377592215398 0.4015406136693934 0.4014343767483848 F
0.2019139699943339 0.3821674227362417 0.9054228317293654 F
0.8972747194689085 0.1035877537754812 0.1257185262924947 F
0.8837125057401063 0.1113434419680309 0.6251221983377082 F
