System                                  
   1.0000000000000000     
     5.5538384054210015    0.1686753566542905    1.5271560782293219
    -1.5038922418942582    6.4285585794185840   -1.4607593426437104
    -0.1522792519897233    0.1321239268012436    6.7587329594172241
  V               O             
     5    12
Direct
     0.7176845595553435    0.1778904076459154    0.6284089444348321
     0.7823277974322137    0.6284377136770686    0.1779065046864647
     0.2500069899905311    0.9336331334638448    0.9336333301370711
     0.2239199605377904    0.3865425000014882    0.8101600940647722
     0.2761261192878967    0.8101854445776467    0.3865394775549333
     0.4572788099145553    0.6182344496928459    0.2951781956654671
     0.0427321542866562    0.2951787072276187    0.6182245336020832
     0.9747676160608912    0.6622338467854703    0.3603635540090872
     0.5252644357786269    0.3603677152554630    0.6622016299456094
     0.3026139036562615   -0.0234811705262627    0.2136247094695378
     0.9054338153343244    0.8273935982037299    0.0345887872411181
     0.8344937454944784    0.4181942259253343    0.0154932495993400
     0.6654987828890783    0.0154771581690816    0.4181841116246868
     0.2914266162502101    0.6495650990350457    0.8930710653979730
     0.5945949285458475    0.0345979794744322    0.8273810288823387
     0.1974105591079179    0.2136457338093729   -0.0234915093826483
     0.2085954578395701    0.8930877121152232    0.6495727372479853

  0.00000000E+00  0.00000000E+00  0.00000000E+00
  0.00000000E+00  0.00000000E+00  0.00000000E+00
  0.00000000E+00  0.00000000E+00  0.00000000E+00
  0.00000000E+00  0.00000000E+00  0.00000000E+00
  0.00000000E+00  0.00000000E+00  0.00000000E+00
  0.00000000E+00  0.00000000E+00  0.00000000E+00
  0.00000000E+00  0.00000000E+00  0.00000000E+00
  0.00000000E+00  0.00000000E+00  0.00000000E+00
  0.00000000E+00  0.00000000E+00  0.00000000E+00
  0.00000000E+00  0.00000000E+00  0.00000000E+00
  0.00000000E+00  0.00000000E+00  0.00000000E+00
  0.00000000E+00  0.00000000E+00  0.00000000E+00
  0.00000000E+00  0.00000000E+00  0.00000000E+00
  0.00000000E+00  0.00000000E+00  0.00000000E+00
  0.00000000E+00  0.00000000E+00  0.00000000E+00
  0.00000000E+00  0.00000000E+00  0.00000000E+00
  0.00000000E+00  0.00000000E+00  0.00000000E+00
