System
1.0
5.357096004319662 0.0411455656499104 1.623669443011395
-1.582758713435932 6.320720193786087 -1.5997724767669517
-0.014435650406794 0.0066415348637129 6.709272479817604
V O 
5 12 
direct
0.7266123256636945 0.18087385509888387 0.6222258469860611 V
0.7733990734183751 0.6222517045904868 0.18089040562582287 V
0.2500032504649005 0.929485389176778 0.9294709466920619 V
0.20217301607481486 0.3836128348211813 0.8330699737948625 V
0.29781339681096486 0.8330672060339425 0.3836118110901995 V
0.44071819154444014 0.5922078784619451 0.3023071982260105 O
0.05928260650396569 0.30230851547140253 0.5921992640788136 O
0.9490767903383017 0.680554119203834 0.37386458394976313 O
0.5509277825264582 0.37384079623164107 0.6805249147017545 O
0.31664788498818247 0.005421825578662499 0.2103336840274292 O
0.8711190875352762 0.804017092667899 0.0067773588726792915 O
0.8255053151252196 0.38821925378252636 0.022354419542253378 O
0.6745419380059743 0.022336074063973393 0.3881881113728146 O
0.29541631328730694 0.6546051023145326 0.9111746912211175 O
0.6289061936391178 0.006805471982975798 0.8040301641492882 O
0.18336607271453878 0.21033777638243456 0.005426434663669599 O
0.20466701332065548 0.9112393586702254 0.6545906351860378 O
