System                                  
   1.0000000000000000     
     4.7352499975188387   -0.0000000684469600   -0.0000000914800373
    -0.0000000700454429    5.1157167058407760   -0.0000094192584676
    -0.0000001727770166   -0.0000161642777628    8.7400500099899556
  Li              Ta              O             
     4     4    12
Direct
     0.0000003704996386    0.4999997527666952    0.0000001874687134
     0.5000003162125736    0.0000002239713059    0.5000000882145750
     0.0000002455244877    0.4999997590488595    0.4999999239787104
     0.5000000767188597    0.0000002328006792   -0.0000000601848057
     0.5581959155269365    0.5577948260908053    0.2500014972560515
     0.9418031688677242    0.0577990378589395    0.2500011349693603
     0.4418034268124795    0.4422009715288693    0.7499988895971423
     0.0581956311372725    0.9422051296582328    0.7499985087411949
     0.2918722040503305    0.7006366192394109    0.6044274680108563
     0.2081285737454227    0.2006382868688450    0.8955746329690174
     0.2918702788497666    0.7006388756375621    0.8955750866978472
     0.2081281917676301    0.2006361764941183    0.6044278558154713
     0.7081281952813910    0.2993638506855879    0.3955720704379116
     0.1945845512428888    0.3908122811657456    0.2499996878646611
     0.8054165708326831    0.6091882768575768    0.7500002398076238
     0.6945845980406682    0.1091877011126811    0.7500001937197007
     0.7918722282330684    0.7993633961533467    0.3955725015981464
     0.3054166287909335    0.8908117068402790    0.2499997594829940
     0.7918702402770318    0.7993611535508640    0.1044249502513959
     0.7081285875882173    0.2993617416695880    0.1044253833034321

  0.00000000E+00  0.00000000E+00  0.00000000E+00
  0.00000000E+00  0.00000000E+00  0.00000000E+00
  0.00000000E+00  0.00000000E+00  0.00000000E+00
  0.00000000E+00  0.00000000E+00  0.00000000E+00
  0.00000000E+00  0.00000000E+00  0.00000000E+00
  0.00000000E+00  0.00000000E+00  0.00000000E+00
  0.00000000E+00  0.00000000E+00  0.00000000E+00
  0.00000000E+00  0.00000000E+00  0.00000000E+00
  0.00000000E+00  0.00000000E+00  0.00000000E+00
  0.00000000E+00  0.00000000E+00  0.00000000E+00
  0.00000000E+00  0.00000000E+00  0.00000000E+00
  0.00000000E+00  0.00000000E+00  0.00000000E+00
  0.00000000E+00  0.00000000E+00  0.00000000E+00
  0.00000000E+00  0.00000000E+00  0.00000000E+00
  0.00000000E+00  0.00000000E+00  0.00000000E+00
  0.00000000E+00  0.00000000E+00  0.00000000E+00
  0.00000000E+00  0.00000000E+00  0.00000000E+00
  0.00000000E+00  0.00000000E+00  0.00000000E+00
  0.00000000E+00  0.00000000E+00  0.00000000E+00
  0.00000000E+00  0.00000000E+00  0.00000000E+00
