System                                  
   1.0000000000000000     
     9.9607399999999995    0.0001100000000000   -0.0000600000000000
     0.0000400000000000   12.9470899999999993    0.0015800000000000
     0.0000400000000000   -0.0010200000000000    9.4285399999999999
  Li              Mn              P               O             
    14    16    16    64
Direct
     0.5267286273298261    0.1247585731926839    0.6693877584841711
     0.5166363027328019    0.6248419349204798    0.6729945635717242
     0.2341348406978450    0.1252231875268925    0.1641228102995390
     0.2356803204870563    0.6249085857473229    0.1665954041104901
     0.7379289839083056    0.1252232759117147    0.1708565939262384
     0.7375723493279371    0.6251973127731106    0.1710956768553495
     0.4882835069720640    0.3750602232009866    0.3337066937474528
     0.4878533604142851    0.8749648757781174    0.3336530708872002
     0.9860272943261768    0.3734521421377532    0.3286545016313613
     0.9858958992237331    0.8760376031394883    0.3282538706589281
     0.2625706258132968    0.3746593410760801    0.8278295262855105
     0.2624921034514793    0.8761106989510127    0.8270660315813356
     0.7653965519149014    0.3752448812357473    0.8289481830556427
     0.7653627815343508    0.8750613812064095    0.8292510212484386
     0.5002653390382730    0.2502155086409297    0.9989310544168721
     0.5022242967574528    0.7499481424480468    0.9995584407446128
     0.0022639642453690    0.2488822463046084    0.9924863989430525
     0.0034866424817095    0.7484829119737972    0.9939376861932081
     0.2475597693916883    0.2487694955856792    0.5010177036444844
     0.2464511923246148    0.7465933162227868    0.5021232646041855
     0.7556350185588996    0.2503418833146070    0.5043329617810510
     0.7553326258363173    0.7489899788637987    0.5050644135628540
     0.0016146536557155    0.0011169331450769    0.9929965294235729
     0.0028265525712343    0.5011349292807123    0.9947508087910443
     0.4997527377433101    0.9996880193240877    0.9992456233870103
     0.5020270363004060    0.4999634400495293    0.9999236574982822
     0.2456487833914976    0.5038735903295625    0.5012113832971083
     0.2458777204885716    0.0018413084409129    0.4995288251742895
     0.7553530694916983    0.5012368452666389    0.5048309609237009
     0.7557430836603866    0.9997605719756550    0.5042281975711832
     0.2395427030352081    0.3753711536028160    0.1804125588103455
     0.2391793857055890    0.8747820507841120    0.1799573345103161
     0.7395024909823251    0.3750071942670001    0.1803360058655550
     0.7393710264238252    0.8749614559731766    0.1805169062725472
     0.0169049023102289    0.3787918442374326    0.6747170441669113
     0.0166184238381845    0.8705951886213965    0.6751334234175737
     0.5106208974306683    0.3765942737070875    0.6783516176079696
     0.5107620382495796    0.8734026543121489    0.6782365881657659
     0.2591730268824206    0.1253664331847435    0.8193600134862334
     0.2616335090143163    0.6251191405190931    0.8240432352539238
     0.7581411985524292    0.1249826562054599    0.8203842278535196
     0.7596730752433517    0.6249204312709172    0.8216785292549987
     0.4848754412153014    0.1247287246824953    0.3222838375058912
     0.4848724628942367    0.6249526469988369    0.3230418205468926
     0.9896418999015905    0.1249883242976124    0.3192735937568569
     0.9892254139554120    0.6251601731055140    0.3193011217553275
     0.0822035197414990    0.2819550809908365    0.6116651937293088
     0.0811195398266724    0.7720361365991727    0.6171043731566536
     0.5759334853252448    0.2782570491683238    0.6178688380387762
     0.5755242982692210    0.7744434859598621    0.6191262189614365
     0.1736702376442218    0.2766537355031224    0.1214167001603156
     0.1725619241035017    0.7759911316005490    0.1220931072333408
     0.6733237927591577    0.2759031942803398    0.1219473962249490
     0.6728314001233798    0.7756867681596344    0.1221379167849720
     0.3277676314672421    0.2248472897696968    0.8751117663362473
     0.3289975738046086    0.7248553130689480    0.8806555105468846
     0.8247873193283904    0.2245175913263425    0.8761806776961845
     0.8253660006944868    0.7241803973779051    0.8798875821130895
     0.4186578098663942    0.2236534071659189    0.3834475874405487
     0.4178983308858404    0.7237211960065687    0.3833718737691428
     0.9239376005637862    0.2242820115376108    0.3770813578067525
     0.9231631719602617    0.7244598757256420    0.3760358866132086
     0.3285672856105643    0.0258034091851411    0.8739202374489180
     0.3297276607241836    0.5254645560538548    0.8802777712466344
     0.8245088110141277    0.0252512323937682    0.8757331589030704
     0.8251246935372515    0.5253123030302989    0.8786586226796779
     0.4192625550799150    0.0258401392491739    0.3836444275726080
     0.4182255401400146    0.5262496673929937    0.3838282802620535
     0.9245109521643902    0.0254731419182218    0.3773382740744387
     0.9238158231654533    0.5255570737474859    0.3758631377509327
     0.3930225869331302    0.3755087125208854    0.1440843895288260
     0.3926816579374443    0.8740118210621061    0.1436989662711855
     0.8921800503578565    0.3754032926607767    0.1400546443891636
     0.8919998487219735    0.8746968446957912    0.1401153570283140
     0.2838619991971713    0.1256143861554715    0.6523310340801762
     0.2890588102953370    0.6250847772905361    0.6580596162335793
     0.7618524015929915    0.1250835541964918    0.6542485464017903
     0.7677688667409079    0.6252841419708633    0.6563126166653597
     0.1111589095648335    0.1250450354212881    0.8710819572504437
     0.1135239550960043    0.6248233739840960    0.8756900820073279
     0.6060148949527191    0.1250439319084526    0.8690265335472858
     0.6070540900935716    0.6250614620906815    0.8695368655469609
     0.1435944946829699    0.1250345125662177    0.3551822657493167
     0.1430382345198827    0.6253386621928466    0.3559115977584822
     0.6376979961772357    0.1250567990801890    0.3578797660183984
     0.6375582502686071    0.6250237722651998    0.3593481507939639
     0.0415081188339045    0.3756856760604422    0.8409280253535049
     0.0406937068670788    0.8729366448544913    0.8416163436278855
     0.5380169431081183    0.3759155839975674    0.8441059060917977
     0.5381229458041122    0.8741802367969794    0.8440674313857430
     0.2133304651112605    0.3754064476619239    0.3476864313965321
     0.2127153552605484    0.8746163507024389    0.3470179266280679
     0.7140905133103087    0.3754331271058299    0.3462753319646208
     0.7141377182219346    0.8746411142554565    0.3464770655497333
     0.1739223753605131    0.4742771752556071    0.1222088756696434
     0.1744527876310027    0.9736719869812911    0.1203854193444183
     0.6730017485445112    0.4742574556595913    0.1217067566279516
     0.6729815663162062    0.9740161489820355    0.1219908695208654
     0.4561243004055375    0.1248326647208976    0.1573706813275091
     0.4574012210049371    0.6248707250290593    0.1576966709905994
     0.9633015542147219    0.1250675417207855    0.1532518651777858
     0.9638588806923352    0.6253304156850920    0.1528750258881217
     0.3571390607783440    0.3764676568420137    0.6400607613663697
     0.3574058154609602    0.8732773209282148    0.6398589975312746
     0.8627791138203167    0.3777567224666636    0.6383434102226587
     0.8625991911316833    0.8719905412220954    0.6384419038103927
     0.0817763841525636    0.4776237706249009    0.6179596222904976
     0.0830782107228135    0.9677481865775382    0.6148173122515826
     0.5753340518353547    0.4755670687269432    0.6193163655640962
     0.5762593376701365    0.9717473995506505    0.6180147046855268

  0.00000000E+00  0.00000000E+00  0.00000000E+00
  0.00000000E+00  0.00000000E+00  0.00000000E+00
  0.00000000E+00  0.00000000E+00  0.00000000E+00
  0.00000000E+00  0.00000000E+00  0.00000000E+00
  0.00000000E+00  0.00000000E+00  0.00000000E+00
  0.00000000E+00  0.00000000E+00  0.00000000E+00
  0.00000000E+00  0.00000000E+00  0.00000000E+00
  0.00000000E+00  0.00000000E+00  0.00000000E+00
  0.00000000E+00  0.00000000E+00  0.00000000E+00
  0.00000000E+00  0.00000000E+00  0.00000000E+00
  0.00000000E+00  0.00000000E+00  0.00000000E+00
  0.00000000E+00  0.00000000E+00  0.00000000E+00
  0.00000000E+00  0.00000000E+00  0.00000000E+00
  0.00000000E+00  0.00000000E+00  0.00000000E+00
  0.00000000E+00  0.00000000E+00  0.00000000E+00
  0.00000000E+00  0.00000000E+00  0.00000000E+00
  0.00000000E+00  0.00000000E+00  0.00000000E+00
  0.00000000E+00  0.00000000E+00  0.00000000E+00
  0.00000000E+00  0.00000000E+00  0.00000000E+00
  0.00000000E+00  0.00000000E+00  0.00000000E+00
  0.00000000E+00  0.00000000E+00  0.00000000E+00
  0.00000000E+00  0.00000000E+00  0.00000000E+00
  0.00000000E+00  0.00000000E+00  0.00000000E+00
  0.00000000E+00  0.00000000E+00  0.00000000E+00
  0.00000000E+00  0.00000000E+00  0.00000000E+00
  0.00000000E+00  0.00000000E+00  0.00000000E+00
  0.00000000E+00  0.00000000E+00  0.00000000E+00
  0.00000000E+00  0.00000000E+00  0.00000000E+00
  0.00000000E+00  0.00000000E+00  0.00000000E+00
  0.00000000E+00  0.00000000E+00  0.00000000E+00
  0.00000000E+00  0.00000000E+00  0.00000000E+00
  0.00000000E+00  0.00000000E+00  0.00000000E+00
  0.00000000E+00  0.00000000E+00  0.00000000E+00
  0.00000000E+00  0.00000000E+00  0.00000000E+00
  0.00000000E+00  0.00000000E+00  0.00000000E+00
  0.00000000E+00  0.00000000E+00  0.00000000E+00
  0.00000000E+00  0.00000000E+00  0.00000000E+00
  0.00000000E+00  0.00000000E+00  0.00000000E+00
  0.00000000E+00  0.00000000E+00  0.00000000E+00
  0.00000000E+00  0.00000000E+00  0.00000000E+00
  0.00000000E+00  0.00000000E+00  0.00000000E+00
  0.00000000E+00  0.00000000E+00  0.00000000E+00
  0.00000000E+00  0.00000000E+00  0.00000000E+00
  0.00000000E+00  0.00000000E+00  0.00000000E+00
  0.00000000E+00  0.00000000E+00  0.00000000E+00
  0.00000000E+00  0.00000000E+00  0.00000000E+00
  0.00000000E+00  0.00000000E+00  0.00000000E+00
  0.00000000E+00  0.00000000E+00  0.00000000E+00
  0.00000000E+00  0.00000000E+00  0.00000000E+00
  0.00000000E+00  0.00000000E+00  0.00000000E+00
  0.00000000E+00  0.00000000E+00  0.00000000E+00
  0.00000000E+00  0.00000000E+00  0.00000000E+00
  0.00000000E+00  0.00000000E+00  0.00000000E+00
  0.00000000E+00  0.00000000E+00  0.00000000E+00
  0.00000000E+00  0.00000000E+00  0.00000000E+00
  0.00000000E+00  0.00000000E+00  0.00000000E+00
  0.00000000E+00  0.00000000E+00  0.00000000E+00
  0.00000000E+00  0.00000000E+00  0.00000000E+00
  0.00000000E+00  0.00000000E+00  0.00000000E+00
  0.00000000E+00  0.00000000E+00  0.00000000E+00
  0.00000000E+00  0.00000000E+00  0.00000000E+00
  0.00000000E+00  0.00000000E+00  0.00000000E+00
  0.00000000E+00  0.00000000E+00  0.00000000E+00
  0.00000000E+00  0.00000000E+00  0.00000000E+00
  0.00000000E+00  0.00000000E+00  0.00000000E+00
  0.00000000E+00  0.00000000E+00  0.00000000E+00
  0.00000000E+00  0.00000000E+00  0.00000000E+00
  0.00000000E+00  0.00000000E+00  0.00000000E+00
  0.00000000E+00  0.00000000E+00  0.00000000E+00
  0.00000000E+00  0.00000000E+00  0.00000000E+00
  0.00000000E+00  0.00000000E+00  0.00000000E+00
  0.00000000E+00  0.00000000E+00  0.00000000E+00
  0.00000000E+00  0.00000000E+00  0.00000000E+00
  0.00000000E+00  0.00000000E+00  0.00000000E+00
  0.00000000E+00  0.00000000E+00  0.00000000E+00
  0.00000000E+00  0.00000000E+00  0.00000000E+00
  0.00000000E+00  0.00000000E+00  0.00000000E+00
  0.00000000E+00  0.00000000E+00  0.00000000E+00
  0.00000000E+00  0.00000000E+00  0.00000000E+00
  0.00000000E+00  0.00000000E+00  0.00000000E+00
  0.00000000E+00  0.00000000E+00  0.00000000E+00
  0.00000000E+00  0.00000000E+00  0.00000000E+00
  0.00000000E+00  0.00000000E+00  0.00000000E+00
  0.00000000E+00  0.00000000E+00  0.00000000E+00
  0.00000000E+00  0.00000000E+00  0.00000000E+00
  0.00000000E+00  0.00000000E+00  0.00000000E+00
  0.00000000E+00  0.00000000E+00  0.00000000E+00
  0.00000000E+00  0.00000000E+00  0.00000000E+00
  0.00000000E+00  0.00000000E+00  0.00000000E+00
  0.00000000E+00  0.00000000E+00  0.00000000E+00
  0.00000000E+00  0.00000000E+00  0.00000000E+00
  0.00000000E+00  0.00000000E+00  0.00000000E+00
  0.00000000E+00  0.00000000E+00  0.00000000E+00
  0.00000000E+00  0.00000000E+00  0.00000000E+00
  0.00000000E+00  0.00000000E+00  0.00000000E+00
  0.00000000E+00  0.00000000E+00  0.00000000E+00
  0.00000000E+00  0.00000000E+00  0.00000000E+00
  0.00000000E+00  0.00000000E+00  0.00000000E+00
  0.00000000E+00  0.00000000E+00  0.00000000E+00
  0.00000000E+00  0.00000000E+00  0.00000000E+00
  0.00000000E+00  0.00000000E+00  0.00000000E+00
  0.00000000E+00  0.00000000E+00  0.00000000E+00
  0.00000000E+00  0.00000000E+00  0.00000000E+00
  0.00000000E+00  0.00000000E+00  0.00000000E+00
  0.00000000E+00  0.00000000E+00  0.00000000E+00
  0.00000000E+00  0.00000000E+00  0.00000000E+00
  0.00000000E+00  0.00000000E+00  0.00000000E+00
  0.00000000E+00  0.00000000E+00  0.00000000E+00
  0.00000000E+00  0.00000000E+00  0.00000000E+00
  0.00000000E+00  0.00000000E+00  0.00000000E+00
