System                                  
   1.0000000000000000     
     9.9607399999999995    0.0001100000000000   -0.0000600000000000
     0.0000400000000000   12.9470899999999993    0.0015800000000000
     0.0000400000000000   -0.0010200000000000    9.4285399999999999
  Li              Mn              P               O             
    12    16    16    64
Direct
     0.5201185261227783    0.6216281020571205    0.6803829509833759
     0.2327192048395783    0.1209711629365424    0.1746074495125091
     0.7293687184447204    0.1242079121125224    0.1704046601856948
     0.7455253710047730    0.6050437534859304    0.1820347187363649
     0.4861206348747035    0.3853377464836156    0.3312013536420909
     0.4784695803273348    0.8733118966095517    0.3275029481775733
     0.0068229236182489    0.4129975624020673    0.2947587299508797
     0.9817008276852837    0.8751264418902411    0.3240274937238494
     0.2683054609396210    0.3749844031813816    0.8201171285827977
     0.2460174178816165    0.9068195201540434    0.7991854749625048
     0.7718784151933403    0.3759368034605124    0.8275972274931145
     0.7490988637409061    0.9071235537199411    0.7991287564309727
     0.4993489263849014    0.2486993447057683    0.9938249310093668
     0.5021388283531244    0.7481335863339159    0.0045198507532758
     0.0022694226245473    0.2505177273712493    0.9976369416552521
     0.0026757913686887    0.7489220453536951    0.9967880066911432
     0.2476363345284800    0.2478794236783826    0.5038956456302126
     0.2466557653594952    0.7458677897274513    0.4981445353792709
     0.7493792474095348    0.2496391614985815    0.5057170273003019
     0.7547876806249438    0.7489652924785087    0.5065505088741749
     0.9950078677278569    0.0054399435760737    0.9925075976521438
     0.0246337999469226    0.5053128402956074    0.9816379641314743
     0.4925486952032090    0.0044136766883413    0.9929687884373166
     0.5043936186161949    0.4963526553822693    0.0044731146615173
     0.2525886768140203    0.5103685821882663    0.4946581034345724
     0.2365935097543349    0.0026820594130692    0.4993815952808004
     0.7645721544945066    0.5040288546617880    0.5078888655564765
     0.7386275379715398    0.0039471603626798    0.4984173518130636
     0.2391551840176990    0.3608546421020483    0.1863200344755831
     0.2301833006559219    0.8811447696795802    0.1724181461045708
     0.7398103779650186    0.3632999308761291    0.1892796610124738
     0.7304616653717579    0.8811514072426119    0.1751365140106639
     0.0211089443761084    0.3791261528836362    0.6667254863825475
     0.0144784813528290    0.8619709071587921    0.6843157837158381
     0.5190270861589814    0.3822980258993132    0.6727573302879901
     0.5124921748974842    0.8603795048873881    0.6875559074110886
     0.2540548827893330    0.1346803794761294    0.8152249008919191
     0.2710496381270796    0.6192943327288203    0.8291718995898646
     0.7546023259467369    0.1349466188721978    0.8170261237116377
     0.7707048328891737    0.6183040227037309    0.8286544796644750
     0.4789859666931074    0.1182328168926894    0.3285362911465010
     0.4935912916361200    0.6310642186270580    0.3158348422083495
     0.9777174971514838    0.1173043628758606    0.3288277417683351
     0.9936151673863876    0.6359679178448501    0.3128069028643840
     0.0859645082663408    0.2815151628145284    0.6003264449931199
     0.0803075218823599    0.7655586335962492    0.6255661840169532
     0.5894412257300732    0.2898397409524627    0.6003119392083577
     0.5731968127158276    0.7597950965234241    0.6301057217501330
     0.1794038715967212    0.2598171072544178    0.1295627450042684
     0.1564280009786791    0.7885724054373545    0.1045859698863368
     0.6671199133913499    0.2678901413160308    0.1309944007641961
     0.6613563841064199    0.7837980385735358    0.1099677084338381
     0.3240641290939022    0.2330100778124204    0.8701944497026451
     0.3467838674906105    0.7130068789730213    0.8953865064101677
     0.8243053629269298    0.2327854292588907    0.8741837344405440
     0.8402513938097688    0.7143883682719447    0.8957569330705332
     0.4082761527669676    0.2146809474842515    0.3943548097943453
     0.4239906436523805    0.7282657894782548    0.3730545407235759
     0.9031392258717104    0.2109564293973174    0.3954663188859149
     0.9240922798352376    0.7335581318252410    0.3696449470351821
     0.3267625856290070    0.0345190238012843    0.8618644985228756
     0.3263790207416387    0.5154308133262172    0.8867199369825617
     0.8274530251414137    0.0347087792254330    0.8625853007637493
     0.8329817833720058    0.5171531127122068    0.8855330984366007
     0.4205186333797896    0.0170642308872210    0.3886154818279366
     0.4251726708054893    0.5305542949589624    0.3658431937660271
     0.9222661790739390    0.0147148685431536    0.3877361346991221
     0.9149076593354931    0.5367855151118411    0.3549696345131535
     0.3896352959014437    0.3715276056256670    0.1425738043464534
     0.3833669949259350    0.8748331263978097    0.1361343035937865
     0.8901081090346600    0.3623876253608064    0.1479051150615961
     0.8825229020936862    0.8775305489760354    0.1368140329753063
     0.2660498983782484    0.1353915886874720    0.6460646689601642
     0.3025306479251098    0.6231744802608030    0.6657452269846945
     0.7633369765282307    0.1366303695233699    0.6477969569726395
     0.7846284592780042    0.6241800837025525    0.6644248170811952
     0.1079469510096309    0.1310309227905851    0.8731566913700465
     0.1214845512615842    0.6286530811171699    0.8718063682457411
     0.6083620785847983    0.1300799804451774    0.8748863232470743
     0.6186374373064371    0.6215187403832131    0.8744531065082718
     0.1310718266390027    0.1243841863290138    0.3630136158410704
     0.1408674768596185    0.6289905514757121    0.3616840831144997
     0.6324161439760418    0.1238697243118432    0.3619970675926981
     0.6451777696011510    0.6294908530398676    0.3606902824841789
     0.0517087367712612    0.3752892681683200    0.8317941456189383
     0.0297608737599368    0.8626479110049827    0.8563867191610002
     0.5483396268314450    0.3757884211081284    0.8372475656818004
     0.5308196578320853    0.8614336384887928    0.8586937878123191
     0.2250713893367608    0.3628409892995228    0.3570174031474570
     0.2029002848599674    0.8760755521298701    0.3373430015060623
     0.7176581031059869    0.3646058737068010    0.3589248291412594
     0.7016414767183329    0.8765505481536708    0.3396070404044997
     0.1508307520369670    0.4520984042943998    0.1415282351427652
     0.1720818915042582    0.9836999710903482    0.1157628899018769
     0.6714772236646492    0.4640603572813069    0.1385193968988670
     0.6675956767592036    0.9809329526800975    0.1159749006033375
     0.4487070383496568    0.1226050597964062    0.1643829779759516
     0.4850829803718804    0.6316999011630113    0.1461900738797619
     0.9479035431485149    0.1224361713790782    0.1645039442041225
     0.9710472827973355    0.6364564244822714    0.1426172707532205
     0.3665972309257836    0.3762732289647118    0.6351300892968269
     0.3635573033173254    0.8705106346859405    0.6423621234993657
     0.8659793700359562    0.3747366264907753    0.6356316293707470
     0.8638856507330650    0.8693816555473964    0.6407800178099210
     0.0803775095035049    0.4771635839796917    0.6040437873115728
     0.0956014336708504    0.9592997660142055    0.6471419475891442
     0.5784822474521782    0.4844105282187429    0.6174532858771992
     0.6003517806653728    0.9524564378210634    0.6450680464335795

  0.00000000E+00  0.00000000E+00  0.00000000E+00
  0.00000000E+00  0.00000000E+00  0.00000000E+00
  0.00000000E+00  0.00000000E+00  0.00000000E+00
  0.00000000E+00  0.00000000E+00  0.00000000E+00
  0.00000000E+00  0.00000000E+00  0.00000000E+00
  0.00000000E+00  0.00000000E+00  0.00000000E+00
  0.00000000E+00  0.00000000E+00  0.00000000E+00
  0.00000000E+00  0.00000000E+00  0.00000000E+00
  0.00000000E+00  0.00000000E+00  0.00000000E+00
  0.00000000E+00  0.00000000E+00  0.00000000E+00
  0.00000000E+00  0.00000000E+00  0.00000000E+00
  0.00000000E+00  0.00000000E+00  0.00000000E+00
  0.00000000E+00  0.00000000E+00  0.00000000E+00
  0.00000000E+00  0.00000000E+00  0.00000000E+00
  0.00000000E+00  0.00000000E+00  0.00000000E+00
  0.00000000E+00  0.00000000E+00  0.00000000E+00
  0.00000000E+00  0.00000000E+00  0.00000000E+00
  0.00000000E+00  0.00000000E+00  0.00000000E+00
  0.00000000E+00  0.00000000E+00  0.00000000E+00
  0.00000000E+00  0.00000000E+00  0.00000000E+00
  0.00000000E+00  0.00000000E+00  0.00000000E+00
  0.00000000E+00  0.00000000E+00  0.00000000E+00
  0.00000000E+00  0.00000000E+00  0.00000000E+00
  0.00000000E+00  0.00000000E+00  0.00000000E+00
  0.00000000E+00  0.00000000E+00  0.00000000E+00
  0.00000000E+00  0.00000000E+00  0.00000000E+00
  0.00000000E+00  0.00000000E+00  0.00000000E+00
  0.00000000E+00  0.00000000E+00  0.00000000E+00
  0.00000000E+00  0.00000000E+00  0.00000000E+00
  0.00000000E+00  0.00000000E+00  0.00000000E+00
  0.00000000E+00  0.00000000E+00  0.00000000E+00
  0.00000000E+00  0.00000000E+00  0.00000000E+00
  0.00000000E+00  0.00000000E+00  0.00000000E+00
  0.00000000E+00  0.00000000E+00  0.00000000E+00
  0.00000000E+00  0.00000000E+00  0.00000000E+00
  0.00000000E+00  0.00000000E+00  0.00000000E+00
  0.00000000E+00  0.00000000E+00  0.00000000E+00
  0.00000000E+00  0.00000000E+00  0.00000000E+00
  0.00000000E+00  0.00000000E+00  0.00000000E+00
  0.00000000E+00  0.00000000E+00  0.00000000E+00
  0.00000000E+00  0.00000000E+00  0.00000000E+00
  0.00000000E+00  0.00000000E+00  0.00000000E+00
  0.00000000E+00  0.00000000E+00  0.00000000E+00
  0.00000000E+00  0.00000000E+00  0.00000000E+00
  0.00000000E+00  0.00000000E+00  0.00000000E+00
  0.00000000E+00  0.00000000E+00  0.00000000E+00
  0.00000000E+00  0.00000000E+00  0.00000000E+00
  0.00000000E+00  0.00000000E+00  0.00000000E+00
  0.00000000E+00  0.00000000E+00  0.00000000E+00
  0.00000000E+00  0.00000000E+00  0.00000000E+00
  0.00000000E+00  0.00000000E+00  0.00000000E+00
  0.00000000E+00  0.00000000E+00  0.00000000E+00
  0.00000000E+00  0.00000000E+00  0.00000000E+00
  0.00000000E+00  0.00000000E+00  0.00000000E+00
  0.00000000E+00  0.00000000E+00  0.00000000E+00
  0.00000000E+00  0.00000000E+00  0.00000000E+00
  0.00000000E+00  0.00000000E+00  0.00000000E+00
  0.00000000E+00  0.00000000E+00  0.00000000E+00
  0.00000000E+00  0.00000000E+00  0.00000000E+00
  0.00000000E+00  0.00000000E+00  0.00000000E+00
  0.00000000E+00  0.00000000E+00  0.00000000E+00
  0.00000000E+00  0.00000000E+00  0.00000000E+00
  0.00000000E+00  0.00000000E+00  0.00000000E+00
  0.00000000E+00  0.00000000E+00  0.00000000E+00
  0.00000000E+00  0.00000000E+00  0.00000000E+00
  0.00000000E+00  0.00000000E+00  0.00000000E+00
  0.00000000E+00  0.00000000E+00  0.00000000E+00
  0.00000000E+00  0.00000000E+00  0.00000000E+00
  0.00000000E+00  0.00000000E+00  0.00000000E+00
  0.00000000E+00  0.00000000E+00  0.00000000E+00
  0.00000000E+00  0.00000000E+00  0.00000000E+00
  0.00000000E+00  0.00000000E+00  0.00000000E+00
  0.00000000E+00  0.00000000E+00  0.00000000E+00
  0.00000000E+00  0.00000000E+00  0.00000000E+00
  0.00000000E+00  0.00000000E+00  0.00000000E+00
  0.00000000E+00  0.00000000E+00  0.00000000E+00
  0.00000000E+00  0.00000000E+00  0.00000000E+00
  0.00000000E+00  0.00000000E+00  0.00000000E+00
  0.00000000E+00  0.00000000E+00  0.00000000E+00
  0.00000000E+00  0.00000000E+00  0.00000000E+00
  0.00000000E+00  0.00000000E+00  0.00000000E+00
  0.00000000E+00  0.00000000E+00  0.00000000E+00
  0.00000000E+00  0.00000000E+00  0.00000000E+00
  0.00000000E+00  0.00000000E+00  0.00000000E+00
  0.00000000E+00  0.00000000E+00  0.00000000E+00
  0.00000000E+00  0.00000000E+00  0.00000000E+00
  0.00000000E+00  0.00000000E+00  0.00000000E+00
  0.00000000E+00  0.00000000E+00  0.00000000E+00
  0.00000000E+00  0.00000000E+00  0.00000000E+00
  0.00000000E+00  0.00000000E+00  0.00000000E+00
  0.00000000E+00  0.00000000E+00  0.00000000E+00
  0.00000000E+00  0.00000000E+00  0.00000000E+00
  0.00000000E+00  0.00000000E+00  0.00000000E+00
  0.00000000E+00  0.00000000E+00  0.00000000E+00
  0.00000000E+00  0.00000000E+00  0.00000000E+00
  0.00000000E+00  0.00000000E+00  0.00000000E+00
  0.00000000E+00  0.00000000E+00  0.00000000E+00
  0.00000000E+00  0.00000000E+00  0.00000000E+00
  0.00000000E+00  0.00000000E+00  0.00000000E+00
  0.00000000E+00  0.00000000E+00  0.00000000E+00
  0.00000000E+00  0.00000000E+00  0.00000000E+00
  0.00000000E+00  0.00000000E+00  0.00000000E+00
  0.00000000E+00  0.00000000E+00  0.00000000E+00
  0.00000000E+00  0.00000000E+00  0.00000000E+00
  0.00000000E+00  0.00000000E+00  0.00000000E+00
  0.00000000E+00  0.00000000E+00  0.00000000E+00
  0.00000000E+00  0.00000000E+00  0.00000000E+00
  0.00000000E+00  0.00000000E+00  0.00000000E+00
