System                                  
   1.0000000000000000     
    11.3414376695480694   -0.0647836135991604   -0.2488026780888000
    -5.6337010728795018    9.9288513910399363    0.0710431474792025
     0.0222419509143507    0.0786910209071783    9.2036924770866690
  Li              Mn              Co              Ni              O             
     4    12     8    12    64
Direct
     0.3350094446562212    0.1656891984761686    0.3988427648520782
     0.3359209527217288    0.6651663692693016    0.4035234124871240
     0.8353845113684024    0.1645334662707998    0.4029162980174886
     0.8344889975826276    0.6652484296269796    0.3990124690750335
     0.0837211724366293    0.4179531327188485    0.2139119316533954
     0.0823468579024337    0.9155000620904975    0.2066877250714806
     0.5821458625812006    0.4152192424086074    0.2048589448799894
     0.5838364148541020    0.9172457807695544    0.2108527817825658
     0.0838644401504763    0.1688151824542113    0.2090810927171879
     0.0843306703757585    0.6670442107664385    0.2123057897128609
     0.5843663147809366    0.1673782689544209    0.2085221162185574
     0.5841326110891238    0.6684301517934760    0.2086333484603154
     0.1629622385180143    0.0778185575111574    0.7112749293891290
     0.1698656187629664    0.5838300645532379    0.7128375366171960
     0.6695348297662491    0.0838271725409761    0.7124596724190631
     0.6628934077679772    0.5774208388773886    0.7109571074714629
     0.1688218054199708    0.3292789489124241    0.4867734148369849
     0.1666044687413855    0.8328180225001144    0.4891963041531399
     0.6671695568340242    0.3325769530878779    0.4883081582738577
     0.6687617583198926    0.8293071236760253    0.4855155749715629
     0.3368442678068865    0.1661560073950191    0.9824290078467065
     0.3388087094072171    0.6715261850977037    0.9845738569241520
     0.8381805283993439    0.1726230536645551    0.9845094363900961
     0.8358238438378979    0.6650978857884231    0.9837102060620589
     0.4152329041866820    0.0835157325380199    0.7098444975521992
     0.4199713897023383    0.5863693397548255    0.7150396489640292
     0.9202047062904151    0.0873920068237124    0.7157530461436600
     0.9153797252062529    0.5834838005492120    0.7101152091242963
     0.3314662470330143    0.4165734813587083    0.2073729202430372
     0.3311751901460071    0.9154804361907475    0.2121636316817203
     0.8310623033567901    0.4155226987691356    0.2132841902742526
     0.8315429027081768    0.9163265671363776    0.2060123928703106
     0.4122742014080350    0.3273914545700207    0.7095083316029109
     0.4186551516270602    0.8345666884685798    0.7141215833900650
     0.9186942797894855    0.3347844437470572    0.7137359375665999
     0.9121802607911609    0.8278493627006442    0.7097429496627884
     0.1690323477581394    0.0848056752529866    0.1022802837143422
     0.1706450944898474    0.5866029511470384    0.1103982049269516
     0.6693992834779805    0.0859270939184439    0.1060629405475732
     0.6690551318569437    0.5846935403824720    0.1013724104662565
     0.4183565541486011    0.3298793341604607    0.0926743753888696
     0.4190000906531833    0.8380330510547824    0.0961783580337567
     0.9183752709180449    0.3403975816040766    0.0993179749038591
     0.9177408045896325    0.8281501994827918    0.0938100568207331
     0.3312645625025080    0.1646992547110611    0.6076094986962537
     0.3382173096848942    0.6719105402482288    0.6123344124803195
     0.8380360087714126    0.1721037175628455    0.6121228511403320
     0.8313650079065024    0.6645830667600809    0.6077927059257549
     0.2628746639689729    0.0196074677451535    0.8399470973698507
     0.2651250134386556    0.5264339974655730    0.8438141931713081
     0.7653546475800864    0.0271838034484436    0.8440907473206337
     0.7628832302010508    0.5194007584455749    0.8401401044420761
     0.2611859160884784    0.2362646216064588    0.8378890003172742
     0.2641651927085668    0.7417289693719397    0.8401421282251503
     0.7637467435058747    0.2422705216073741    0.8392530209965063
     0.7602989735222747    0.7353887234953607    0.8385885320216867
     0.3208755439745185    0.4051549106257946    0.5976037760485228
     0.3332771182941814    0.9182013914769374    0.5913298732458958
     0.8319234003281961    0.4174607736739673    0.5910903136432191
     0.8198412387476275    0.9056577505040151    0.5966746467147249
     0.2349335780905753    0.2540134483592879    0.3454012774415795
     0.2393353331870628    0.7594191400643167    0.3460096865702846
     0.7410223411698876    0.2606248336711245    0.3420309021675560
     0.7345726191876950    0.7534846406574839    0.3450653015168991
     0.0202805779936890    0.2594804004146989    0.3405105085579974
     0.0205227733814844    0.7601231490489949    0.3400979964046299
     0.5213201184164059    0.2601843363334716    0.3381575290351143
     0.5201795789726950    0.7593907380726040    0.3388228508456182
     0.0809033467668007    0.1607798881714198    0.5986746313723323
     0.0867571522434623    0.6720282684732994    0.5985775577504184
     0.5858989180040590    0.1707115197028613    0.5963328209494466
     0.5809225370634551    0.6602591602518502    0.5979782470929499
     0.9968206601608984    0.9925233031114460    0.8111932883850449
    -0.0001683194129248    0.5010072947416861    0.8102146581736673
     0.4996406845910586    0.0010786536259921    0.8102491659900030
     0.4966772218273203    0.4916357130701205    0.8106516626972645
     0.9973653430216372    0.9977465113585413    0.3068679842606109
     0.9972789449953033    0.4991176889467338    0.3157798599256991
     0.4986042819539730    0.9997266729782985    0.3121867601798142
     0.4982352363660164    0.4975517015489038    0.3069185769264477
     0.1661092155768508    0.3362839935079437    0.1077889946274906
     0.1673128256006297    0.8329320063972655    0.1073008237575991
     0.6688483026950459    0.3342539691559407    0.1053615874160678
     0.6665092378051714    0.8352171995075677    0.1060852295570383
     0.4793394133297508    0.2390098058252944    0.8386459702558902
     0.4839736709013497    0.7540607229958902    0.8523739706576403
     0.9836221649631378    0.2548945991246960    0.8528272953632350
     0.9785041924104745    0.7375993155796011    0.8405947807596781
     0.0848054574192140    0.4185491612005711    0.6010546348700913
     0.0795344211913561    0.9149275038399769    0.5967222574202264
     0.5790601134476123    0.4143687238513760    0.5957948855276128
     0.5844145501003906    0.9184149790759731    0.6009801009161454
     0.2359347003072923    0.4775142418641558    0.3496382427927660
     0.2356694069345539    0.9768606477434756    0.3448320865891537
     0.7378668040613514    0.4769181332226515    0.3414992812142004
     0.7354849989274631    0.9772997339387013    0.3474481250614248
     0.4165497571221938    0.0873409647195838    0.0994984839650345
     0.4180855650588780    0.5930844740548852    0.0972761451679453
     0.9179646765550076    0.0945203037669228    0.0973816096480931
     0.9165495906347108    0.5842800787785536    0.1017306404205305

  0.00000000E+00  0.00000000E+00  0.00000000E+00
  0.00000000E+00  0.00000000E+00  0.00000000E+00
  0.00000000E+00  0.00000000E+00  0.00000000E+00
  0.00000000E+00  0.00000000E+00  0.00000000E+00
  0.00000000E+00  0.00000000E+00  0.00000000E+00
  0.00000000E+00  0.00000000E+00  0.00000000E+00
  0.00000000E+00  0.00000000E+00  0.00000000E+00
  0.00000000E+00  0.00000000E+00  0.00000000E+00
  0.00000000E+00  0.00000000E+00  0.00000000E+00
  0.00000000E+00  0.00000000E+00  0.00000000E+00
  0.00000000E+00  0.00000000E+00  0.00000000E+00
  0.00000000E+00  0.00000000E+00  0.00000000E+00
  0.00000000E+00  0.00000000E+00  0.00000000E+00
  0.00000000E+00  0.00000000E+00  0.00000000E+00
  0.00000000E+00  0.00000000E+00  0.00000000E+00
  0.00000000E+00  0.00000000E+00  0.00000000E+00
  0.00000000E+00  0.00000000E+00  0.00000000E+00
  0.00000000E+00  0.00000000E+00  0.00000000E+00
  0.00000000E+00  0.00000000E+00  0.00000000E+00
  0.00000000E+00  0.00000000E+00  0.00000000E+00
  0.00000000E+00  0.00000000E+00  0.00000000E+00
  0.00000000E+00  0.00000000E+00  0.00000000E+00
  0.00000000E+00  0.00000000E+00  0.00000000E+00
  0.00000000E+00  0.00000000E+00  0.00000000E+00
  0.00000000E+00  0.00000000E+00  0.00000000E+00
  0.00000000E+00  0.00000000E+00  0.00000000E+00
  0.00000000E+00  0.00000000E+00  0.00000000E+00
  0.00000000E+00  0.00000000E+00  0.00000000E+00
  0.00000000E+00  0.00000000E+00  0.00000000E+00
  0.00000000E+00  0.00000000E+00  0.00000000E+00
  0.00000000E+00  0.00000000E+00  0.00000000E+00
  0.00000000E+00  0.00000000E+00  0.00000000E+00
  0.00000000E+00  0.00000000E+00  0.00000000E+00
  0.00000000E+00  0.00000000E+00  0.00000000E+00
  0.00000000E+00  0.00000000E+00  0.00000000E+00
  0.00000000E+00  0.00000000E+00  0.00000000E+00
  0.00000000E+00  0.00000000E+00  0.00000000E+00
  0.00000000E+00  0.00000000E+00  0.00000000E+00
  0.00000000E+00  0.00000000E+00  0.00000000E+00
  0.00000000E+00  0.00000000E+00  0.00000000E+00
  0.00000000E+00  0.00000000E+00  0.00000000E+00
  0.00000000E+00  0.00000000E+00  0.00000000E+00
  0.00000000E+00  0.00000000E+00  0.00000000E+00
  0.00000000E+00  0.00000000E+00  0.00000000E+00
  0.00000000E+00  0.00000000E+00  0.00000000E+00
  0.00000000E+00  0.00000000E+00  0.00000000E+00
  0.00000000E+00  0.00000000E+00  0.00000000E+00
  0.00000000E+00  0.00000000E+00  0.00000000E+00
  0.00000000E+00  0.00000000E+00  0.00000000E+00
  0.00000000E+00  0.00000000E+00  0.00000000E+00
  0.00000000E+00  0.00000000E+00  0.00000000E+00
  0.00000000E+00  0.00000000E+00  0.00000000E+00
  0.00000000E+00  0.00000000E+00  0.00000000E+00
  0.00000000E+00  0.00000000E+00  0.00000000E+00
  0.00000000E+00  0.00000000E+00  0.00000000E+00
  0.00000000E+00  0.00000000E+00  0.00000000E+00
  0.00000000E+00  0.00000000E+00  0.00000000E+00
  0.00000000E+00  0.00000000E+00  0.00000000E+00
  0.00000000E+00  0.00000000E+00  0.00000000E+00
  0.00000000E+00  0.00000000E+00  0.00000000E+00
  0.00000000E+00  0.00000000E+00  0.00000000E+00
  0.00000000E+00  0.00000000E+00  0.00000000E+00
  0.00000000E+00  0.00000000E+00  0.00000000E+00
  0.00000000E+00  0.00000000E+00  0.00000000E+00
  0.00000000E+00  0.00000000E+00  0.00000000E+00
  0.00000000E+00  0.00000000E+00  0.00000000E+00
  0.00000000E+00  0.00000000E+00  0.00000000E+00
  0.00000000E+00  0.00000000E+00  0.00000000E+00
  0.00000000E+00  0.00000000E+00  0.00000000E+00
  0.00000000E+00  0.00000000E+00  0.00000000E+00
  0.00000000E+00  0.00000000E+00  0.00000000E+00
  0.00000000E+00  0.00000000E+00  0.00000000E+00
  0.00000000E+00  0.00000000E+00  0.00000000E+00
  0.00000000E+00  0.00000000E+00  0.00000000E+00
  0.00000000E+00  0.00000000E+00  0.00000000E+00
  0.00000000E+00  0.00000000E+00  0.00000000E+00
  0.00000000E+00  0.00000000E+00  0.00000000E+00
  0.00000000E+00  0.00000000E+00  0.00000000E+00
  0.00000000E+00  0.00000000E+00  0.00000000E+00
  0.00000000E+00  0.00000000E+00  0.00000000E+00
  0.00000000E+00  0.00000000E+00  0.00000000E+00
  0.00000000E+00  0.00000000E+00  0.00000000E+00
  0.00000000E+00  0.00000000E+00  0.00000000E+00
  0.00000000E+00  0.00000000E+00  0.00000000E+00
  0.00000000E+00  0.00000000E+00  0.00000000E+00
  0.00000000E+00  0.00000000E+00  0.00000000E+00
  0.00000000E+00  0.00000000E+00  0.00000000E+00
  0.00000000E+00  0.00000000E+00  0.00000000E+00
  0.00000000E+00  0.00000000E+00  0.00000000E+00
  0.00000000E+00  0.00000000E+00  0.00000000E+00
  0.00000000E+00  0.00000000E+00  0.00000000E+00
  0.00000000E+00  0.00000000E+00  0.00000000E+00
  0.00000000E+00  0.00000000E+00  0.00000000E+00
  0.00000000E+00  0.00000000E+00  0.00000000E+00
  0.00000000E+00  0.00000000E+00  0.00000000E+00
  0.00000000E+00  0.00000000E+00  0.00000000E+00
  0.00000000E+00  0.00000000E+00  0.00000000E+00
  0.00000000E+00  0.00000000E+00  0.00000000E+00
  0.00000000E+00  0.00000000E+00  0.00000000E+00
  0.00000000E+00  0.00000000E+00  0.00000000E+00
