System
1.0
11.34143766954807 -0.0647836135991604 -0.2488026780888
-5.633701072879502 9.928851391039936 0.0710431474792025
0.0222419509143507 0.0786910209071783 9.203692477086669
Li Mn Co Ni O 
4 12 8 12 64 
direct
0.3347425718948069 0.1649549110191793 0.4014655280897694 Li
0.3355866791389835 0.6664702904183791 0.4022292125409178 Li
0.8343241289498936 0.1649720015802989 0.4025061545328721 Li
0.8350855588543327 0.6649988269485749 0.398877042131012 Li
0.0831050563335527 0.4185074432962755 0.2141779103359948 Mn
0.0820643908712295 0.9153550985688945 0.2096588431050229 Mn
0.5822504745388243 0.4149289796261547 0.2042799056013504 Mn
0.5843522419919087 0.9168305493550285 0.2089048204462612 Mn
0.082855712735601 0.1673375182213482 0.2112158632547174 Mn
0.0850452724745433 0.6679204449973268 0.2127634979437727 Mn
0.5840286509572236 0.1677431385419568 0.2075021653178791 Mn
0.5845553934858708 0.6678949389545931 0.2079708118930655 Mn
0.1614377266731261 0.0775678043051859 0.7149112826850909 Mn
0.1693932086944875 0.5853943998521391 0.7127103060336858 Mn
0.6678313121103757 0.0853453685089029 0.7124352953776061 Mn
0.6662190579195836 0.5781856455829709 0.707646027629938 Mn
0.1672790789692003 0.3301902264415003 0.4865204162151047 Co
0.1666238820640403 0.8336022154856021 0.4892717085961925 Co
0.6698791506556216 0.3361580928794828 0.4874613669929798 Co
0.6690570423547826 0.8291066298173294 0.4844443832917864 Co
0.3345415799296743 0.1638871823685462 0.9825678385055785 Co
0.3412450843070434 0.6734884896746982 0.9842053654595728 Co
0.8376460035653254 0.1730039655086495 0.9832751914587524 Co
0.8360244726205258 0.6656149888679689 0.9832173419164679 Co
0.4142069416117826 0.0837499039334587 0.711238249029826 Ni
0.4214702186571775 0.5879904911552567 0.7119735318462072 Ni
0.9173608599329794 0.0861333110717187 0.7145268512920595 Ni
0.9174029608366935 0.5841065470052766 0.7118533594922027 Ni
0.3323526826617957 0.4164335494903751 0.2093379117321462 Ni
0.331678328336412 0.9163516955010741 0.2108209594957525 Ni
0.8313377588018885 0.4158861540200616 0.21156748581687 Ni
0.8314904505916728 0.9159993814373757 0.2061273947896223 Ni
0.4114521158310891 0.3284278554058994 0.7070534001000903 Ni
0.4182862883029936 0.8348019555530105 0.7134697502635008 Ni
0.9172198311494941 0.3352318674988855 0.7154912845236314 Ni
0.9126156777181285 0.8275889067613903 0.709390929405079 Ni
0.1686290877675576 0.0840641092087027 0.1067765786662388 O
0.1711302131742408 0.5868679539656698 0.1097358474389798 O
0.6694917626695625 0.0859695827457052 0.1036960466620724 O
0.6691618249590602 0.5846370644648554 0.1005800357385908 O
0.4185133725565172 0.3321317065252857 0.0919309487541963 O
0.4191129647290317 0.8336900111893872 0.0962632606285076 O
0.9184497821819615 0.3404097096732387 0.0981699742112995 O
0.9174239301390427 0.8284069654315542 0.0944165116840453 O
0.3290132062539435 0.1637629819151452 0.6097086462863772 O
0.3376144797890534 0.6724167494158536 0.6111611906537217 O
0.8364989704151472 0.1734758462620815 0.6118773430350006 O
0.8350666098139037 0.6654217083500512 0.6070482431041914 O
0.2618358226369824 0.0179580431117454 0.8408955808543543 O
0.265813223117614 0.5260733742839558 0.8425739040356326 O
0.7641989095808255 0.0275518146324936 0.8439263807446246 O
0.764617039415857 0.5199678865784039 0.8386479732476732 O
0.2485387861547081 0.226854864420243 0.8484851801397043 O
0.2650735565704453 0.7426774122573931 0.8397242317397772 O
0.7630899850168068 0.2438029620833005 0.839225269476234 O
0.7600754855610597 0.7347095423159912 0.8366681233904345 O
0.3189157273038146 0.4061556027574411 0.5964987056635331 O
0.3297531023976191 0.9165286309627265 0.5945134760276619 O
0.842167345645398 0.4213933668085451 0.5912180397489428 O
0.8200377381481525 0.9051163396610298 0.5965640810853342 O
0.234500195945611 0.2543146360489629 0.3468596917054216 O
0.2373948671637713 0.7585667442723897 0.3475187994825552 O
0.7410704656320226 0.2616717297216241 0.3404332783326274 O
0.7349554224773033 0.7531458234609931 0.3449799644516664 O
0.019095225462581 0.259458718519061 0.3398752600202249 O
0.0201060756113987 0.7594198777555246 0.341071892809344 O
0.5211139894589096 0.2606607252868878 0.3373768172877883 O
0.5207019395761658 0.7593702851850344 0.3379588674240327 O
0.0808638835685071 0.1626299382698561 0.6015011074719684 O
0.0851848504056547 0.6690754528129629 0.6003306984891518 O
0.5847511971276467 0.1692261490470431 0.5964621514765402 O
0.5821758232098756 0.6598653149913069 0.594480995974004 O
0.9932646288018313 0.9902914938639064 0.8113912673048572 O
0.0001808459671668 0.5011619762900748 0.8130875583005008 O
0.4986526919710453 1.0008252349321023 0.8106534476144773 O
0.4986320393905207 0.4940175992045774 0.8056394498916373 O
0.9961481831069906 0.9979547844171548 0.3090278797131736 O
0.9971839295447744 0.4986263724324256 0.3146685334793304 O
0.4994100339566911 0.9996670021713978 0.310264318899841 O
0.498641154589968 0.4972892624333613 0.3082819095148692 O
0.1666952100884938 0.3358530619942184 0.1080687221805315 O
0.166805756107794 0.8337605935942891 0.1083558544469197 O
0.6691390945558053 0.3348828791900405 0.1042163017474661 O
0.6672070358964698 0.8343843739408515 0.1053059190469559 O
0.4760834414455572 0.2343762509238433 0.8428880584443977 O
0.48498325318532 0.7539151387715554 0.8493894629460742 O
0.9834683096293441 0.2539755406772773 0.8496295678662044 O
0.9793200563601066 0.7381856614859977 0.8397042998630249 O
0.0840762570321609 0.4178401502961526 0.6054063867241611 O
0.0792421892855497 0.915046756541035 0.5975846866131951 O
0.5934912827129867 0.4142005703576452 0.5943630748514063 O
0.5845926954421011 0.9186135618551243 0.6015301257644033 O
0.2354993816994371 0.4777095168243155 0.3490019986250615 O
0.233470825777609 0.9775489608034167 0.3480204089555732 O
0.7409449971865725 0.4784825322479392 0.339022674518226 O
0.7362517066639367 0.9772674508835881 0.3463752557363775 O
0.4167511678252868 0.0893563559248888 0.0998320803744677 O
0.4194354578339237 0.5915053001055586 0.096116547612241 O
0.9180410876026232 0.0945132879259589 0.0969250379594806 O
0.9171422666453943 0.5846555741814052 0.1004868240727747 O
