System                                  
   1.0000000000000000     
     6.2166268115236027    0.0000004444635892   -0.0000001403171149
     0.0000001020118633    2.3843247014262543    4.1296463468359956
    -0.0000002567259048   -2.3843259720142886    4.1296470809355892
  Li              Ag              Sn            
     2     2     2
Direct
     0.2500000847201372   -0.0000000503180107    0.0000001296919217
     0.7500000229287030    0.0000001198816362   -0.0000001017564168
    -0.0000000875569693    0.3332968965518667    0.3332967569967894
     0.4999999670203582    0.6667030134425200    0.6667034264148760
     0.4999999819866975    0.3333547523918995    0.3333544760546898
     0.0000000309010733    0.6666452680500883    0.6666453125981397

  0.00000000E+00  0.00000000E+00  0.00000000E+00
  0.00000000E+00  0.00000000E+00  0.00000000E+00
  0.00000000E+00  0.00000000E+00  0.00000000E+00
  0.00000000E+00  0.00000000E+00  0.00000000E+00
  0.00000000E+00  0.00000000E+00  0.00000000E+00
  0.00000000E+00  0.00000000E+00  0.00000000E+00
