System                                  
   1.0000000000000000     
     5.4708382024320779    0.0293513493256973    8.3341886943696082
     2.5128950263205008    4.8596704594484654    8.3341927319266542
     0.0479436749146709    0.0293662146501017    9.9693140870265768
  Li              Co              O             
     8     8    16
Direct
     0.2499998112160374    0.2499992924050633    0.2500000403180671
     0.2500006746853670    0.2500007393930442    0.7499991447813897
     0.2500003768832998    0.7499977673018414    0.2500014632379194
     0.2500011764692290    0.7499990525067594    0.7499992886231960
     0.7499995665053282    0.2499994138853631    0.2500003817429990
     0.7500008155577633    0.2500006202661061    0.7499995392781423
     0.7500012368609139    0.7499980113591784    0.2500001938175651
     0.7500015410777248    0.7499988392922513    0.7500002606530261
     0.0000042782866556    0.0000024393404960    0.0000041029310536
    -0.0000029066876239   -0.0000044375266221    0.4999962557803144
    -0.0000028494354034    0.4999954149214404   -0.0000036450315854
     0.0000037095076160    0.5000037467571709    0.5000032484678628
     0.4999964529098214   -0.0000040169625364   -0.0000035444190065
     0.5000042058887149    0.0000025549545239    0.5000039483831719
     0.5000035866093547    0.5000036752634123    0.0000034261151486
     0.4999964993788917    0.4999957943166446    0.4999966772780249
     0.1301284705575316    0.1301268993457044    0.1301279676137903
     0.1301259430954743    0.1301219787250155    0.6301237677301925
     0.1301188928408920    0.6301234509117596    0.1301263023657969
     0.1301311252438498    0.6301246641616871    0.6301291765189561
     0.6301225604389471    0.1301181316785490    0.1301295530746797
     0.6301247511534411    0.1301300559016624    0.6301294175703485
     0.6301259216030808    0.6301268733848815    0.1301328677690611
     0.6301230701911082    0.6301269106991559    0.6301204297449707
     0.3698725622824601    0.3698667466648838    0.3698749583802675
     0.3698790685957918    0.3698759864783130    0.8698716240637379
     0.3698805250070671    0.8698725258942670    0.3698748275921819
     0.3698731284085676    0.8698756310280634    0.8698657302744497
     0.8698740203463243    0.3698777989430962    0.3698754032905789
     0.8698766705082651    0.3698707062941654    0.8698687654546502
     0.8698695099745318    0.8698720082008095    0.3698713093909726
     0.8698768310717341    0.8698759744344781    0.8698761661230282

  0.00000000E+00  0.00000000E+00  0.00000000E+00
  0.00000000E+00  0.00000000E+00  0.00000000E+00
  0.00000000E+00  0.00000000E+00  0.00000000E+00
  0.00000000E+00  0.00000000E+00  0.00000000E+00
  0.00000000E+00  0.00000000E+00  0.00000000E+00
  0.00000000E+00  0.00000000E+00  0.00000000E+00
  0.00000000E+00  0.00000000E+00  0.00000000E+00
  0.00000000E+00  0.00000000E+00  0.00000000E+00
  0.00000000E+00  0.00000000E+00  0.00000000E+00
  0.00000000E+00  0.00000000E+00  0.00000000E+00
  0.00000000E+00  0.00000000E+00  0.00000000E+00
  0.00000000E+00  0.00000000E+00  0.00000000E+00
  0.00000000E+00  0.00000000E+00  0.00000000E+00
  0.00000000E+00  0.00000000E+00  0.00000000E+00
  0.00000000E+00  0.00000000E+00  0.00000000E+00
  0.00000000E+00  0.00000000E+00  0.00000000E+00
  0.00000000E+00  0.00000000E+00  0.00000000E+00
  0.00000000E+00  0.00000000E+00  0.00000000E+00
  0.00000000E+00  0.00000000E+00  0.00000000E+00
  0.00000000E+00  0.00000000E+00  0.00000000E+00
  0.00000000E+00  0.00000000E+00  0.00000000E+00
  0.00000000E+00  0.00000000E+00  0.00000000E+00
  0.00000000E+00  0.00000000E+00  0.00000000E+00
  0.00000000E+00  0.00000000E+00  0.00000000E+00
  0.00000000E+00  0.00000000E+00  0.00000000E+00
  0.00000000E+00  0.00000000E+00  0.00000000E+00
  0.00000000E+00  0.00000000E+00  0.00000000E+00
  0.00000000E+00  0.00000000E+00  0.00000000E+00
  0.00000000E+00  0.00000000E+00  0.00000000E+00
  0.00000000E+00  0.00000000E+00  0.00000000E+00
  0.00000000E+00  0.00000000E+00  0.00000000E+00
  0.00000000E+00  0.00000000E+00  0.00000000E+00
