System
1.0
5.62469 -0.00254 9.26165
2.59013 4.99283 9.26165
-0.00418 -0.00254 10.83583
Na Co O 
8 8 16 
direct
0.25000065758561857 0.25000050043165756 0.24999877949813662 Na
0.2500006575856185 0.25000050043165756 0.7499987794981364 Na
0.2500006575856185 0.7500005004316576 0.24999877949813665 Na
0.2500006575856185 0.7500005004316576 0.7499987794981366 Na
0.7500006575856185 0.25000050043165756 0.24999877949813654 Na
0.7500006575856185 0.25000050043165756 0.7499987794981366 Na
0.7500006575856184 0.7500005004316576 0.2499987794981368 Na
0.7500006575856186 0.7500005004316576 0.7499987794981366 Na
0.0 0.0 0.0 Co
7.12632998563594e-20 -3.300540674853641e-20 0.49999999999999994 Co
2.4560108949338646e-17 0.5 -2.769119790859538e-17 Co
1.0549288390833373e-17 0.5 0.49999999999999983 Co
0.5 -9.392475841842991e-21 -2.769119790859538e-17 Co
0.5 -5.697671827777437e-20 0.4999999999999999 Co
0.5 0.5 -5.538239581719076e-17 Co
0.4999999999999999 0.5 0.5 Co
0.13495936623268814 0.13495928140623775 0.13495835242626958 O
0.13495936623268817 0.13495928140623775 0.6349583524262695 O
0.1349593662326882 0.6349592814062377 0.13495835242626958 O
0.13495936623268823 0.6349592814062378 0.6349583524262694 O
0.6349593662326881 0.13495928140623775 0.13495835242626958 O
0.6349593662326882 0.13495928140623775 0.6349583524262695 O
0.6349593662326881 0.6349592814062378 0.1349583524262697 O
0.6349593662326881 0.6349592814062378 0.6349583524262696 O
0.36504194893854885 0.3650417194570775 0.3650392065700038 O
0.3650419489385489 0.3650417194570774 0.8650392065700039 O
0.3650419489385489 0.8650417194570773 0.36503920657000366 O
0.36504194893854897 0.8650417194570773 0.8650392065700035 O
0.8650419489385487 0.3650417194570774 0.3650392065700039 O
0.865041948938549 0.3650417194570775 0.8650392065700035 O
0.8650419489385489 0.8650417194570773 0.36503920657000377 O
0.8650419489385487 0.8650417194570774 0.8650392065700038 O
