System                                  
   1.0000000000000000     
     9.9607399999999995    0.0001100000000000   -0.0000600000000000
     0.0000400000000000   12.9470899999999993    0.0015800000000000
     0.0000400000000000   -0.0010200000000000    9.4285399999999999
  Li              Mn              P               O             
     6    16    16    64
Direct
     0.2283184612636908    0.1229722198916419    0.1778239734560857
     0.7319373032885013    0.1263579618556093    0.1768147480944774
     0.4760155284008882    0.8781342163534951    0.3248219906279511
     0.9741902391435348    0.8755415750586713    0.3216184614734501
     0.2750330735875586    0.3757319549785023    0.8254129931055637
     0.7721506507334220    0.3740091236986743    0.8276797316664468
     0.5048579984010515    0.2568048312520099    0.0086448408470582
     0.4941047208670647    0.7487270009566788    0.9960841610603419
     0.0041060792552326    0.2480112414084335    0.0046039661303749
     0.0042753219714228    0.7424971425296323    0.9876490415927028
     0.2501161534971476    0.2484784760753273    0.5029150809669645
     0.2488104129832925    0.7494936305206474    0.5029792150417131
     0.7485125254043542    0.2467269030218691    0.5017228637971747
     0.7483994055483953    0.7474597365362661    0.5039625321765955
     0.0014495311733740    0.9976931463423726    0.9843654904875552
     0.0008450996079763    0.4948097640057697    0.0142141032782499
     0.5092031146398839    0.0073663338876947    0.9762313135134663
     0.5050293500737720    0.5028202346202024    0.0113005302876539
     0.2543092684173140    0.5046138878188199    0.4989009611719628
     0.2430961450491325    0.9991317955409329    0.5119174917063839
     0.7586964380540120    0.5008551216400909    0.5010160753700470
     0.7431244693618932    0.9985935994825844    0.5115175119073839
     0.2383449530569898    0.3713974549204834    0.1877661424932915
     0.2267328023842339    0.8782242125065711    0.1713559212387588
     0.7442680180343454    0.3744118425982205    0.1899257134863197
     0.7237721963734232    0.8805452502303041    0.1662669578509214
     0.0277190622459196    0.3776860284591119    0.6716693112489934
     0.0120158449004065    0.8624550496683860    0.6747473569928040
     0.5271463296950248    0.3768247618897397    0.6664904671067453
     0.5120238787569177    0.8648325705628562    0.6786712558708131
     0.2674858848310006    0.1366827478953085    0.8217334210062944
     0.2667486995028278    0.6113088394334456    0.8254238973019639
     0.7639495521143372    0.1342748084887955    0.8195709689851111
     0.7716394925042890    0.6113629611154019    0.8273267461010860
     0.4766055105184875    0.1175110153701893    0.3255340239501212
     0.4833933641620498    0.6376913648079794    0.3281069976279240
     0.9774603131764347    0.1162940143619695    0.3297684619975965
     0.9827431724809538    0.6337300549622236    0.3237221973694029
     0.0928630975210156    0.2795794228200943    0.6076279021091582
     0.0901418819470376    0.7686415564419450    0.6145030943052754
     0.5888549169256535    0.2784789150422924    0.5997660112968871
     0.5914992293259744    0.7703565446477314    0.6221469668501324
     0.1725678225342975    0.2688877568078237    0.1423738142264673
     0.1505903688883516    0.7873091358030190    0.1013568015453716
     0.6800784769973029    0.2713608460717759    0.1417412326644218
     0.6531947525878966    0.7890906741668802    0.0918329135570288
     0.3335645272964708    0.2369187082121822    0.8762306671680258
     0.3413551401555819    0.7064602047624695    0.8859530911701324
     0.8294881495242343    0.2347744812363311    0.8751443064917027
     0.8465988747908529    0.7064771967962178    0.8857269492566353
     0.3993141921898202    0.2110765687126519    0.3887485170193610
     0.4093534288450702    0.7365322777266484    0.3832388603546213
     0.9025939160497961    0.2092529446668243    0.3965095726072492
     0.9074059912796303    0.7331406296677124    0.3750769131582303
     0.3443331113727842    0.0400114761340425    0.8749172167312756
     0.3338103015826696    0.5112248417941064    0.8773129510110627
     0.8377941236964528    0.0375112433895188    0.8673749001053664
     0.8421217456127269    0.5119146344644030    0.8882617319471287
     0.4130251674982715    0.0161287569621107    0.3790312764837814
     0.4072660362674728    0.5418811914231936    0.3839683863889874
     0.9145524628057810    0.0142025894207665    0.3820795654093301
     0.9077027348992422    0.5383463694690522    0.3824111619276269
     0.3846059884318688    0.3774189887338521    0.1315192988512443
     0.3794364424201276    0.8708667072296034    0.1358003397555067
     0.8921196518868201    0.3779825252903639    0.1273346183155448
     0.8763345294707291    0.8776589958686862    0.1336733161108150
     0.2755155111145376    0.1346021470035511    0.6529349463050705
     0.2816953973592922    0.6170369495575712    0.6558536697716600
     0.7692801770977874    0.1350592730409981    0.6505444361430927
     0.7888801113453683    0.6109138702691002    0.6591004054829430
     0.1219792744160465    0.1300109996909528    0.8820112908636498
     0.1176898915045979    0.6143567621580476    0.8802224646901950
     0.6162837692002041    0.1319479431809323    0.8826051291069634
     0.6244163388824154    0.6144500819006862    0.8782187122419070
     0.1298538023174508    0.1216349906505820    0.3694965441742046
     0.1305787751346712    0.6346565959359141    0.3788237412010245
     0.6286156472031436    0.1225787579340065    0.3652342860842667
     0.6315224003907894    0.6388482520416539    0.3839542628784993
     0.0561580095008197    0.3763292644684528    0.8367595725481451
     0.0183454804369428    0.8579499537834734    0.8429095202315059
     0.5578809205577800    0.3756907595074482    0.8299760062797704
     0.5156684083693378    0.8632192154029984    0.8482158274059818
     0.2289779459873945    0.3777922063250292    0.3591775514168985
     0.1968680100378150    0.8713516015260072    0.3372957991402732
     0.7398106424028108    0.3742263250201469    0.3624775237329687
     0.6915492432940722    0.8752942866475832    0.3303233117631871
     0.1590674220697561    0.4646502407708205    0.1260466591433650
     0.1683463986732320    0.9819574938511071    0.1190316141070840
     0.6657995615364224    0.4675582713591693    0.1393068866184655
     0.6619016160898259    0.9839308516072323    0.1097006849465749
     0.4543305118396129    0.1246442761647025    0.1591019937001266
     0.4746754587470514    0.6378519733541519    0.1606749536666359
     0.9532353461978839    0.1238376962789146    0.1642396037855640
     0.9732703412109390    0.6301961085503537    0.1553255896165490
     0.3735826937030471    0.3788283986332233    0.6322816131225579
     0.3641595703179680    0.8603839182782208    0.6185142272941706
     0.8746516004324141    0.3790224885786971    0.6376965037392830
     0.8635857198701998    0.8571870743922531    0.6133086387132893
     0.0971675424828589    0.4734999002450267    0.6065074917125557
     0.0760613499559275    0.9643905111879900    0.6302100570390923
     0.5968180711572704    0.4722294702804836    0.5996942899662209
     0.5779921940744024    0.9660459692199603    0.6332708029730372

  0.00000000E+00  0.00000000E+00  0.00000000E+00
  0.00000000E+00  0.00000000E+00  0.00000000E+00
  0.00000000E+00  0.00000000E+00  0.00000000E+00
  0.00000000E+00  0.00000000E+00  0.00000000E+00
  0.00000000E+00  0.00000000E+00  0.00000000E+00
  0.00000000E+00  0.00000000E+00  0.00000000E+00
  0.00000000E+00  0.00000000E+00  0.00000000E+00
  0.00000000E+00  0.00000000E+00  0.00000000E+00
  0.00000000E+00  0.00000000E+00  0.00000000E+00
  0.00000000E+00  0.00000000E+00  0.00000000E+00
  0.00000000E+00  0.00000000E+00  0.00000000E+00
  0.00000000E+00  0.00000000E+00  0.00000000E+00
  0.00000000E+00  0.00000000E+00  0.00000000E+00
  0.00000000E+00  0.00000000E+00  0.00000000E+00
  0.00000000E+00  0.00000000E+00  0.00000000E+00
  0.00000000E+00  0.00000000E+00  0.00000000E+00
  0.00000000E+00  0.00000000E+00  0.00000000E+00
  0.00000000E+00  0.00000000E+00  0.00000000E+00
  0.00000000E+00  0.00000000E+00  0.00000000E+00
  0.00000000E+00  0.00000000E+00  0.00000000E+00
  0.00000000E+00  0.00000000E+00  0.00000000E+00
  0.00000000E+00  0.00000000E+00  0.00000000E+00
  0.00000000E+00  0.00000000E+00  0.00000000E+00
  0.00000000E+00  0.00000000E+00  0.00000000E+00
  0.00000000E+00  0.00000000E+00  0.00000000E+00
  0.00000000E+00  0.00000000E+00  0.00000000E+00
  0.00000000E+00  0.00000000E+00  0.00000000E+00
  0.00000000E+00  0.00000000E+00  0.00000000E+00
  0.00000000E+00  0.00000000E+00  0.00000000E+00
  0.00000000E+00  0.00000000E+00  0.00000000E+00
  0.00000000E+00  0.00000000E+00  0.00000000E+00
  0.00000000E+00  0.00000000E+00  0.00000000E+00
  0.00000000E+00  0.00000000E+00  0.00000000E+00
  0.00000000E+00  0.00000000E+00  0.00000000E+00
  0.00000000E+00  0.00000000E+00  0.00000000E+00
  0.00000000E+00  0.00000000E+00  0.00000000E+00
  0.00000000E+00  0.00000000E+00  0.00000000E+00
  0.00000000E+00  0.00000000E+00  0.00000000E+00
  0.00000000E+00  0.00000000E+00  0.00000000E+00
  0.00000000E+00  0.00000000E+00  0.00000000E+00
  0.00000000E+00  0.00000000E+00  0.00000000E+00
  0.00000000E+00  0.00000000E+00  0.00000000E+00
  0.00000000E+00  0.00000000E+00  0.00000000E+00
  0.00000000E+00  0.00000000E+00  0.00000000E+00
  0.00000000E+00  0.00000000E+00  0.00000000E+00
  0.00000000E+00  0.00000000E+00  0.00000000E+00
  0.00000000E+00  0.00000000E+00  0.00000000E+00
  0.00000000E+00  0.00000000E+00  0.00000000E+00
  0.00000000E+00  0.00000000E+00  0.00000000E+00
  0.00000000E+00  0.00000000E+00  0.00000000E+00
  0.00000000E+00  0.00000000E+00  0.00000000E+00
  0.00000000E+00  0.00000000E+00  0.00000000E+00
  0.00000000E+00  0.00000000E+00  0.00000000E+00
  0.00000000E+00  0.00000000E+00  0.00000000E+00
  0.00000000E+00  0.00000000E+00  0.00000000E+00
  0.00000000E+00  0.00000000E+00  0.00000000E+00
  0.00000000E+00  0.00000000E+00  0.00000000E+00
  0.00000000E+00  0.00000000E+00  0.00000000E+00
  0.00000000E+00  0.00000000E+00  0.00000000E+00
  0.00000000E+00  0.00000000E+00  0.00000000E+00
  0.00000000E+00  0.00000000E+00  0.00000000E+00
  0.00000000E+00  0.00000000E+00  0.00000000E+00
  0.00000000E+00  0.00000000E+00  0.00000000E+00
  0.00000000E+00  0.00000000E+00  0.00000000E+00
  0.00000000E+00  0.00000000E+00  0.00000000E+00
  0.00000000E+00  0.00000000E+00  0.00000000E+00
  0.00000000E+00  0.00000000E+00  0.00000000E+00
  0.00000000E+00  0.00000000E+00  0.00000000E+00
  0.00000000E+00  0.00000000E+00  0.00000000E+00
  0.00000000E+00  0.00000000E+00  0.00000000E+00
  0.00000000E+00  0.00000000E+00  0.00000000E+00
  0.00000000E+00  0.00000000E+00  0.00000000E+00
  0.00000000E+00  0.00000000E+00  0.00000000E+00
  0.00000000E+00  0.00000000E+00  0.00000000E+00
  0.00000000E+00  0.00000000E+00  0.00000000E+00
  0.00000000E+00  0.00000000E+00  0.00000000E+00
  0.00000000E+00  0.00000000E+00  0.00000000E+00
  0.00000000E+00  0.00000000E+00  0.00000000E+00
  0.00000000E+00  0.00000000E+00  0.00000000E+00
  0.00000000E+00  0.00000000E+00  0.00000000E+00
  0.00000000E+00  0.00000000E+00  0.00000000E+00
  0.00000000E+00  0.00000000E+00  0.00000000E+00
  0.00000000E+00  0.00000000E+00  0.00000000E+00
  0.00000000E+00  0.00000000E+00  0.00000000E+00
  0.00000000E+00  0.00000000E+00  0.00000000E+00
  0.00000000E+00  0.00000000E+00  0.00000000E+00
  0.00000000E+00  0.00000000E+00  0.00000000E+00
  0.00000000E+00  0.00000000E+00  0.00000000E+00
  0.00000000E+00  0.00000000E+00  0.00000000E+00
  0.00000000E+00  0.00000000E+00  0.00000000E+00
  0.00000000E+00  0.00000000E+00  0.00000000E+00
  0.00000000E+00  0.00000000E+00  0.00000000E+00
  0.00000000E+00  0.00000000E+00  0.00000000E+00
  0.00000000E+00  0.00000000E+00  0.00000000E+00
  0.00000000E+00  0.00000000E+00  0.00000000E+00
  0.00000000E+00  0.00000000E+00  0.00000000E+00
  0.00000000E+00  0.00000000E+00  0.00000000E+00
  0.00000000E+00  0.00000000E+00  0.00000000E+00
  0.00000000E+00  0.00000000E+00  0.00000000E+00
  0.00000000E+00  0.00000000E+00  0.00000000E+00
  0.00000000E+00  0.00000000E+00  0.00000000E+00
  0.00000000E+00  0.00000000E+00  0.00000000E+00
