System
1.0
9.90153 -0.0029 -0.00071
0.00414 12.67048 -0.00017
0.00066 0.00012 9.3673
Li Fe P O 
15 16 16 64 
direct
0.23740439103171565 0.6249905747026648 0.16963850824552354 c
0.737404378584443 0.1249905905631744 0.16963850279904494 c
0.7374043878759249 0.6249906123159559 0.16963849696702282 c
0.48740369826742796 0.3749888416160939 0.33036175765055925 c
0.4874036999133861 0.8749888423381162 0.33036175041599325 c
0.9874037086922292 0.37498882971248043 0.330361754986732 c
0.9874036865342084 0.8749888206093545 0.33036172646484674 c
0.012596046668502598 0.125011364836384 0.6696377917099607 c
0.012596037350862 0.6250113653354278 0.6696378039719636 c
0.5125960297800094 0.1250114107306123 0.6696378026965798 c
0.51259603210504 0.6250114116462112 0.6696377957681269 c
0.2625950090522988 0.3750095190012251 0.8303608601943475 c
0.2625950285991997 0.875009519060549 0.8303608609568502 c
0.7625949998916015 0.3750095286662171 0.8303608580046418 c
0.7625950440554793 0.8750095148120816 0.8303608490934072 c
0.9999999478049612 3.97310503000308e-08 0.9999996907376748 b
0.9999999414015708 0.5000000778463182 0.9999997390553667 b
0.4999999397582918 6.687233149999734e-08 0.9999997387288384 b
0.4999999241755754 0.5000000787994261 0.9999997273392421 b
0.9999999312435237 0.2500000369099306 0.9999997378738263 b
0.9999999009843221 0.7499999910255035 0.9999997061510965 b
0.4999999417105296 0.2500000314871387 0.99999975023484 b
0.4999999914631965 0.7500000444004935 0.9999997746645258 b
0.2499999550544297 1.573158789000034e-07 0.49999953238495687 b
0.24999989864105435 0.5000001803941981 0.499999565717824 b
0.7499999140435918 1.5591849880003002e-07 0.4999995649187434 b
0.74999990604003 0.5000001835238655 0.4999995628335108 b
0.2499991197994884 0.2500000220468388 0.500000116992469 b
0.24999911669624178 0.7499999990471576 0.500000127566595 b
0.7499990897817161 0.25000002439811536 0.5000001261438365 b
0.7499991186556912 0.7500000195420655 0.5000001454369447 b
0.26363166337833843 0.12500906757832148 0.8216869664250167 c
0.2636315732812889 0.6250091791974101 0.8216868211818743 c
0.7636315570381836 0.1250091058209097 0.8216869772891439 c
0.7636316514425653 0.6250091963461145 0.821686951583843 c
0.013632752484403302 0.3750052010183464 0.6783165849592465 c
0.013632613590810897 0.8750050688850015 0.6783166111255019 c
0.5136326557403389 0.3750051441264172 0.6783166060597835 c
0.5136325612255865 0.875005226951814 0.678316646081572 c
0.4863668693281453 0.12499429786887309 0.3216832796663834 c
0.4863668342505724 0.6249944371256866 0.3216833681468034 c
0.9863669827366787 0.12499434456282069 0.32168326942396785 c
0.9863670209863572 0.624994446162136 0.32168334840646146 c
0.23636853495092838 0.3749907662663176 0.17831287402211024 c
0.23636856387249372 0.8749909100354605 0.17831293174112484 c
0.7363685016281328 0.3749907686434139 0.17831281987812153 c
0.7363678804299163 0.8749907470862714 0.17831274523012466 c
0.10997855603090571 0.1250100179543744 0.8599209979382096 c
0.1099785917182595 0.6250100132690302 0.8599210212791286 c
0.609978609232614 0.1250100259272315 0.8599209896186101 c
0.6099785578347975 0.6250100063467539 0.8599210033243389 c
0.04137235937915091 0.3750033529366875 0.8441995975829377 c
0.0413724172219212 0.8750033508673039 0.8441996115300765 c
0.5413723650864763 0.37500336919140853 0.8441995673584398 c
0.5413723656696685 0.8750033709491537 0.8441995733971924 c
0.29137311702481145 0.1250019956275069 0.6557954689995693 c
0.2913731525719846 0.6250019739828718 0.6557955243149984 c
0.7913731475813708 0.1250019873209379 0.6557954317607677 c
0.7913731185185492 0.6250019687647707 0.6557954621683343 c
0.3599801595198446 0.3750127333225123 0.6400765204096727 c
0.359980214443395 0.8750127363741811 0.6400765263958311 c
0.8599800930199305 0.3750127241100037 0.6400765082667274 c
0.8599801739437668 0.8750127064726616 0.640076508312656 c
0.07980033061474781 0.2739298076045027 0.6181823751069017 d
0.07980037642018181 0.7739297783993957 0.618182373288337 d
0.5798003453918205 0.27392982774350333 0.6181823757987933 d
0.5798004091932898 0.7739297507312426 0.618182320560277 d
0.07980347272839872 0.47609239137302684 0.6181919353709865 d
0.07980354636405408 0.9760924277667399 0.6181918946264063 d
0.5798034983462084 0.47609242000955715 0.6181919230715001 d
0.5798035133908344 0.9760924147383276 0.6181919231005001 d
0.4201956281867973 0.0239064726824727 0.38180775769109987 d
0.4201956179328286 0.5239064320996293 0.38180776431795477 d
0.920195596322396 0.0239064066895324 0.38180776329936345 d
0.920195570143332 0.5239063871640328 0.38180780738641024 d
0.1701957095826032 0.2739114539633241 0.11819165454996822 d
0.17019566217527662 0.7739113664636931 0.11819161071231221 d
0.6701957006130734 0.27391143917171784 0.11819164093362951 d
0.6701954153153874 0.7739113098563939 0.11819161896308403 d
0.14001891742871034 0.1249877576458686 0.35992309308434084 c
0.1400188862361261 0.624987739170442 0.3599230597921283 c
0.6400189884308823 0.1249877540537417 0.35992310721173976 c
0.6400190114079387 0.6249877364642656 0.3599231055023532 c
0.2086264126504364 0.37499811373313346 0.34420383878957234 c
0.20862640481500364 0.8749981096766715 0.34420381024789676 c
0.7086264173389161 0.37499812473555577 0.34420389587641737 c
0.7086264838185689 0.8749981536107361 0.34420385544714255 c
0.4586274946659746 0.12499690066853708 0.15579921617171272 c
0.458627482957934 0.6249968785037169 0.15579915434905192 c
0.9586274813771173 0.1249968845122763 0.15579921711092254 c
0.9586274878425498 0.6249968792537949 0.15579917606814034 c
0.39002104253439374 0.37499001012426647 0.14007885129947872 c
0.3900210388337091 0.8749900097490533 0.14007884489745961 c
0.8900210739159182 0.37499001670967747 0.14007885911466814 c
0.8900201336893052 0.8749886743312058 0.14007678176637872 c
0.3298043870024078 0.22608881551966667 0.8818078890899522 d
0.3298043918147395 0.7260888022909845 0.8818078939308321 d
0.829804415012899 0.22608883153888001 0.8818079059377371 d
0.8298043774189966 0.7260887673633452 0.8818078727873856 d
0.17019939845381038 0.47607451453704913 0.11818196241946183 d
0.170199383706632 0.9760744585339146 0.11818198079280293 d
0.670199412017012 0.47607451230851355 0.11818197807249012 d
0.6701994434765108 0.976074493681084 0.11818206483081221 d
0.42019841857304535 0.22607044604453153 0.38181734095389164 d
0.42019851893808474 0.7260703588874069 0.38181725286219964 d
0.9201984250279661 0.22607042714357867 0.38181731708950734 d
0.9201984589857718 0.7260703859465556 0.3818172745402524 d
0.3298004543584059 0.023925724602872605 0.8818173818114928 d
0.32980053871272774 0.5239256155829288 0.8818174635343942 d
0.829800520701795 0.0239256768805683 0.881817389336968 d
0.8298004804227187 0.5239256605057921 0.8818173956212798 d
