System
1.0
9.897317950528732 -0.0029271268046785 -0.0007080970859342
0.0041209076868966 12.699359464741258 -0.0001603373987241
0.0006672815599464 0.000126383522056 9.369809233586876
Li Fe P O 
4 16 16 64 
direct
0.2347795236187573 0.1267935589957243 0.1723276936888736 Li
0.7368069569813852 0.1254433474647855 0.1766266741925769 Li
0.010855860875478 0.6261568927206587 0.6778757595663298 Li
0.5122156421508011 0.6230774771187102 0.6800118332208148 Li
0.0030860992684259 1.0006226097875939 0.9872528096702305 Fe
1.006274246768929 0.5027470739757695 0.0043199018532456 Fe
0.5019122086080352 0.0012451840951761 0.9907384352936885 Fe
0.5001865851430357 0.5039336824538774 0.008891086693375 Fe
1.0017880952210663 0.2570008640886995 -0.0042280061914452 Fe
0.9819176600116001 0.7537747515088339 0.028004969202013 Fe
0.4958350299483504 0.2500560507640578 0.9976821978337376 Fe
0.4831838061094478 0.7633769577784624 0.0094260331463552 Fe
0.2668029322604049 0.990826723996113 0.5108850969314903 Fe
0.2341095815576438 0.5076031259418624 0.4792335658556864 Fe
0.7695379123973525 0.9859625628905723 0.5119325039005809 Fe
0.7361690796158301 0.5033561562208138 0.4850079063335326 Fe
0.2635206327040586 0.2553846624126169 0.5128420220044447 Fe
0.2455274438018717 0.752670847791242 0.4951754689532697 Fe
0.7554528944343816 0.2530645038884224 0.4969058930319406 Fe
0.7381547171240092 0.7446960740183672 0.4910729364850464 Fe
0.2646767312422602 0.1232600910407271 0.8237297929660935 P
0.2697039012567108 0.6178739897391305 0.8251546651785776 P
0.765136544576262 0.130051652337719 0.8190752612859553 P
0.7670876235309472 0.6157470341195623 0.8323838088695414 P
0.0196277267351564 0.3718814355040154 0.6720243270194628 P
0.0215371707077577 0.873432313936067 0.6813784438856263 P
0.5158239568657228 0.3762093027842411 0.6767618106887174 P
0.5187607601594496 0.8684307063408973 0.6760159933116803 P
0.4852289759576447 0.1315010595909769 0.3308031474538941 P
0.4752526669435452 0.6300205549934467 0.3183645648491926 P
0.9868653570476213 0.1269049213176142 0.3257213293715315 P
0.9763184350209351 0.623567639590144 0.3270850029677791 P
0.2385018191611578 0.374473122056486 0.1771180956413034 P
0.2292152186162867 0.882262217585654 0.1756602497526609 P
0.7342514634242258 0.3646579443365736 0.1724560277331374 P
0.7302059179044258 0.8855076936340929 0.1748558312941494 P
0.11244346768074 0.1285128528171543 0.8843383060405797 O
0.1179555429154053 0.6178919110716122 0.8659207923392569 O
0.6161705388458509 0.1323495666657454 0.8752286769992244 O
0.6131370894244993 0.6170781961349687 0.8780551612262756 O
0.0350531723307236 0.3680950430399926 0.8405341492548748 O
0.0277368664828259 0.878748205628079 0.8518081939124249 O
0.5407899669569721 0.3709749387527145 0.8473966278834518 O
0.5274950744929111 0.8705734452736453 0.8440951109397258 O
0.2766025083209697 0.1269013940175915 0.6535669755523094 O
0.2922807506146604 0.6157811842762786 0.6562017529066967 O
0.7794211822999122 0.1251389594751582 0.6499993812373244 O
0.7882194672058553 0.623139363959135 0.666821435069747 O
0.3655247731659175 0.365928794023484 0.6286980593017304 O
0.3695124272606287 0.8813374533616848 0.618807172754509 O
0.8660402540228963 0.3651729695622933 0.6288325441877329 O
0.8721316496906327 0.8825606641164471 0.6268239127279495 O
0.0958303904311884 0.2790575886761003 0.6065220657182415 O
0.0820772050072631 0.7674711237825398 0.6341407437471632 O
0.6015970011696955 0.2856770248959843 0.6155107606816437 O
0.5734397831247791 0.7617011836636854 0.6236751529173565 O
0.0816210930834749 0.4767806175149401 0.6172757968970916 O
0.1037598957027826 0.9655622359859385 0.6194082881235079 O
0.5746902911627457 0.4821381693531797 0.6267577255787166 O
0.6046890852523374 0.9594447843639081 0.6153504879570041 O
0.4172205074087092 0.0324417817041083 0.3914031644656296 O
0.3980790211039238 0.5320439551910693 0.3755573076231855 O
0.914951818142375 0.0289371451000111 0.3848073321268582 O
0.9068088773564045 0.5222584312994872 0.3734276062440391 O
0.1659085247775595 0.2727672449129494 0.1207333707175584 O
0.1501411610932045 0.7870048747557622 0.1191725156667535 O
0.6635854149735982 0.2636533315506336 0.1130531110512089 O
0.6495001124037445 0.7923883686334653 0.1132095109096976 O
0.1403226067792052 0.1280377621749443 0.3630174668306077 O
0.1283919537435232 0.6200691634378303 0.3858232703179015 O
0.6399669051663075 0.1339237192420469 0.3676398460293547 O
0.6226734903452138 0.6241885944714556 0.3737784869207321 O
0.2257598911189431 0.3730597021889429 0.3481234164882781 O
0.2198811261284843 0.8875895382114737 0.3425275361183054 O
0.71978718619494 0.3646746301922757 0.3391366543747288 O
0.7248598977858227 0.8823256298115043 0.3421790917368254 O
0.4541307749434425 0.1331483779215177 0.1627515304072953 O
0.4690751988589924 0.6262157138377847 0.1456542696158408 O
0.9599165754078256 0.1275910525232667 0.1539605726133612 O
0.9722934097512933 0.6298465294365072 0.1575342693353435 O
0.3898244473427508 0.3702309922891166 0.1185182345316375 O
0.3777728683941639 0.8756989539633838 0.1167047642666585 O
0.8834578043880731 0.3622107476537221 0.1145363315240219 O
0.8816329639329449 0.878836038589009 0.1139389289797404 O
0.3384211162242193 0.2212290686671898 0.8841363291464001 O
0.3421496458694099 0.7172616942748316 0.8821000663943585 O
0.8369815368667373 0.2314399656934007 0.8742655881365284 O
0.8432954064394658 0.7095460618830218 0.9001264903262256 O
0.1690555368917146 0.4729006729407536 0.124245540077815 O
0.162361002367069 0.9848876654908542 0.1153968567846895 O
0.6590550976066882 0.4611771780407614 0.1130200595981239 O
0.6698379564579935 0.9904575747816305 0.121945713160375 O
0.4156993815779453 0.2289123317685327 0.3941651246956512 O
0.4047637525138401 0.7303509995192999 0.3656515218922307 O
0.9139118988713455 0.2247354996806712 0.383932388414662 O
0.912084541858095 0.723162499769467 0.3866886959828491 O
0.3303026018279575 0.0231338075931484 0.8770557865118818 O
0.3460589478968925 0.521276962571887 0.8862235040542871 O
0.8414588530203401 0.0355324198036221 0.8833306166972388 O
0.8326979245300219 0.5118461999805549 0.8831113341143252 O
