System
1.0
11.34143766954807 -0.0647836135991604 -0.2488026780888
-5.633701072879502 9.928851391039936 0.0710431474792025
0.0222419509143507 0.0786910209071783 9.203692477086669
Li Mn Co Ni O 
2 12 8 12 64 
direct
0.3362287226283107 0.6655644290906785 0.4031451833848755 Li
0.8372741975730725 0.1664951260499864 0.4028313226857135 Li
0.0835529182229904 0.4180157839524284 0.2132805343363398 Mn
0.0810547757285832 0.9149562666011387 0.2099451886323565 Mn
0.5831366562962532 0.4157528919191484 0.2061889708194414 Mn
0.5830334220337838 0.9168267090258804 0.209870839523855 Mn
0.0841733396891886 0.168180835949813 0.2104718396892595 Mn
0.0824018702596454 0.6672561796506382 0.2132216693427039 Mn
0.5841641637019792 0.1672166202458378 0.2092224907310789 Mn
0.5839966105487384 0.6680900706431466 0.207533697896883 Mn
0.1631104541208037 0.0774863993926266 0.7110413795345607 Mn
0.1691221813938439 0.5836830294127843 0.7130694908252715 Mn
0.6695798815265672 0.0840660641637084 0.7122605198688988 Mn
0.6642976867647794 0.5782684486092698 0.7072274736881334 Mn
0.1687905508126325 0.329494267044576 0.4864458299670097 Co
0.1649128054304527 0.8317627982386606 0.4884460798553512 Co
0.668039049177901 0.333818355108371 0.487297777028893 Co
0.6704720719016531 0.8294044830256003 0.4853052036747965 Co
0.3361624581656903 0.1662169458142024 0.9834321082490598 Co
0.3380406793621734 0.6713851529324342 0.9843759177633753 Co
0.8369614240421316 0.1715456761468421 0.9851836253394886 Co
0.8338739826670333 0.6642696789893465 0.9841113454827118 Co
0.4153483941436519 0.0832421980955231 0.7098845092324803 Ni
0.4202252603597182 0.5869495431667228 0.7137980185567044 Ni
0.9205788762074809 0.0874127142547036 0.7159349119155431 Ni
0.9148057401772968 0.5836567368440714 0.7090114486546631 Ni
0.3314787023080368 0.4163370289279236 0.2069568413511068 Ni
0.3305787288528904 0.9154679209835247 0.2135848513049465 Ni
0.8304581594219502 0.4153922648634382 0.2137646663504163 Ni
0.8306652693246014 0.9152151204195108 0.2103957244920817 Ni
0.4126449805518024 0.3277434049327316 0.7086263384368136 Ni
0.4182382665572246 0.834848904665775 0.713831564757559 Ni
0.9186777735018539 0.3347304147382693 0.7145384055242928 Ni
0.912006871535536 0.8269292509141637 0.7084861510839107 Ni
0.1692165681995673 0.085075335433228 0.1037436226765334 O
0.1693219336161086 0.5862910038863818 0.1095567234130219 O
0.6690926241265801 0.0857048888998851 0.1062287156466423 O
0.6667854473733978 0.5835250364750396 0.0990757942166161 O
0.4175047449523631 0.3281803554607951 0.0939653284354594 O
0.418227102352045 0.8387197720381903 0.0982874602167567 O
0.9170223541031476 0.3380655958260957 0.1005197732768913 O
0.9171793124708548 0.8354284611090231 0.0942689303478107 O
0.33154586668283 0.1642216442580823 0.6073642684689423 O
0.3379533129058582 0.6721084405500053 0.6122982736666135 O
0.8380277925124818 0.172020737988687 0.6120995615975569 O
0.8319324191829384 0.6648836341072777 0.6065108498357813 O
0.2633821636678645 0.0197814219044073 0.8399160094183041 O
0.2650677708541069 0.5267004746364667 0.8440003087133933 O
0.7651303560593475 0.0270562829973647 0.8443092293752551 O
0.7627909978730311 0.5190152741539723 0.8376333823447069 O
0.2607939513575419 0.2359693053622545 0.8377977401536779 O
0.2641241848237961 0.7421389169838315 0.8401860444144277 O
0.7635701084401323 0.2423156977895111 0.8397069556354779 O
0.7603350533316774 0.7349682839361288 0.837104667027123 O
0.3205218042817888 0.4057388749619215 0.5968357579340023 O
0.3338813898597182 0.9182752556788678 0.5920842974392131 O
0.8333270169050183 0.4180725108902194 0.5915704865463282 O
0.8205018132139742 0.9053810336587539 0.596623219365525 O
0.2351593721758033 0.2541548902735009 0.3457109143142551 O
0.2391216574069164 0.7596196482863509 0.345429228491528 O
0.7416106074062725 0.2611553934698608 0.3422148479845951 O
0.7399296483572123 0.7591363083197429 0.3408830648256641 O
0.0207057690118976 0.259674246073926 0.3407984413206177 O
0.02131026544242 0.7609992587447938 0.341255217136655 O
0.5212964629197298 0.260059277984529 0.338668830322758 O
0.5213708248656395 0.7597955427980699 0.3387051028157022 O
0.0808421994903613 0.1603862490989079 0.5982964938370534 O
0.0860187252325261 0.6713373220096976 0.5991260474058911 O
0.586494555209353 0.1714771731906113 0.597457207943496 O
0.5821792252532196 0.6615768048346223 0.5949002478399225 O
0.9972290197520955 0.9924133977072893 0.8105445992189099 O
0.9995990228008009 0.5008670561898457 0.8104099247491973 O
0.499746037837044 0.0010723036639814 0.8101190397234181 O
0.497138970852283 0.4927146893354158 0.8084814735642414 O
0.9974151135109041 0.9980943504743143 0.310916885753498 O
0.9969148307232837 0.4987566177035664 0.315381658870365 O
0.4991670781884383 0.999375669980631 0.3134560428664482 O
0.4986708142143131 0.4982415101820316 0.3070566114942651 O
0.165489809581696 0.3351170935795385 0.1078363791203423 O
0.1661957886954906 0.8334830293014163 0.108262137252427 O
0.6684192248663878 0.3338300652755532 0.1059214120553331 O
0.6668496553482521 0.835339772735876 0.1060758905927088 O
0.4787324145974741 0.2378314906567236 0.8390092568916128 O
0.4834376145216434 0.7543911224701652 0.8522868759324436 O
0.9828731198204869 0.2534399532624259 0.8534867707691279 O
0.977501730720539 0.7373280543101745 0.8397667385796408 O
0.0844099505213909 0.4182277435314027 0.6019810210065214 O
0.0801493604981169 0.9143012774788184 0.597149994004194 O
0.5797476181705176 0.414855424642612 0.5940315081581852 O
0.5859164412367155 0.9182060759786363 0.6006881660325886 O
0.2358034674984879 0.4777227754590889 0.3490238375687914 O
0.2365404442702846 0.9771160411019447 0.3444840125869395 O
0.737737462592518 0.4752867304504158 0.3418627024531928 O
0.7400226132861007 0.9775484907792206 0.3432729732764255 O
0.416718287194698 0.0853631916842029 0.1005157573043498 O
0.4179223149930354 0.5930822647019377 0.097301145744129 O
0.9166643489540232 0.0889387567027733 0.1002532117277706 O
0.9146563588581281 0.5848393989921529 0.102076880078086 O
