System                                  
   1.0000000000000000     
    10.2852317212148616   -0.0002002927936414   -5.4002187051931321
    -2.8351896634306994    9.8867470578824275   -5.4002254834420542
     0.0099513128610022    0.0132069081834311   12.5149077806612770
  Mn              O             
    32    64
Direct
     0.0062322329538405    0.0080391790970936    0.2629816786831310
     0.9991180942117293    0.9953956261143937    0.7477935060118893
     0.9978245487193516    0.4991307999064508    0.2442977628440030
     0.0263746385370147    0.5252347473292051    0.7964680021999686
     0.5012937570713104    0.0018636539411667    0.2513986441610648
     0.4979771107543063    0.9939296847889535    0.7445012878553461
     0.4924668837758496    0.4937034588961298    0.2321703450293366
     0.5054623390728469    0.5042804755201403    0.7531194608431381
     0.9989915163213900    0.2467357798482151    0.9973551631611643
     0.9969907296433275    0.2551798540052234    0.5002669235005348
     0.0151631550863876    0.7668086422317381    0.0297957989498559
     0.9939181687714286    0.7448856330065355    0.4908595858552993
     0.4943352997948067    0.2433266080469754    0.9881438193100364
     0.5037564136041714    0.2551698545497958    0.5005206752347903
     0.5003437004015318    0.7500096151392678    0.0004217104455634
     0.4975814040223307    0.7448457783733765    0.4910192174644271
     0.2572340454287158    0.0080341961187193    0.2631610433923363
     0.2471107108400063    0.9939371340059814    0.7443428813114443
     0.2470933170048501    0.4990706076977494    0.2444228134361858
     0.2479748735339604    0.5042500710940188    0.7530139310933570
     0.7504167719963706    0.0018249822793696    0.2513346138645081
     0.7494024741124053    0.9953442571916605    0.7478011298264183
     0.7401374880741561    0.4937694075984482    0.2320222715752035
     0.7705286553138493    0.5251475706552551    0.7963586779128682
     0.0035326189155541    0.0025286941867038    0.0063021026054814
     0.9985068519893926    0.0017423949442939    0.5011351616096149
     0.0077976034216470    0.5047967402550397    0.0150288795679128
     0.9790214653142296    0.4797156503436348    0.4643791743344889
     0.4988839917025986    0.9974956200462438    0.9973754549497982
     0.5032065788286595    0.0016890897794037    0.5012444244676241
     0.4938996153214734    0.4943468874237912    0.9874718105073783
     0.4859108812611729    0.4798055643847294    0.4647033149088654
     0.3799126569454985    0.3951979317883166    0.2615512812284448
     0.3899158321900671    0.4043645309880558    0.7795288338348021
     0.3943762374078987    0.9082437729349179    0.2871644833720924
     0.3889115018836593    0.8997246538295697    0.7772410896730556
     0.8820023380506659    0.3952388158353084    0.2612676632969111
     0.9055663990282410    0.4203049048451447    0.8105478603919859
     0.8931176705470161    0.9082325285703587    0.2870059408536814
     0.8924158809338283    0.9024759262546007    0.7839682111020240
     0.3776858695091037    0.1117345722840378    0.4739862165791507
     0.3696512627418509    0.1045852398613261    0.9611285476099660
     0.3678331488847534    0.6025347029593755    0.4538489482948860
     0.3733451198024430    0.6074215998511067    0.9679690035848247
     0.8709675119532569    0.1106448465549272    0.4681067571890274
     0.8739996672801625    0.1077590706172266    0.9688027622300578
     0.8612558973242778    0.5971499421472496    0.4475438132769154
     0.8877272982350189    0.6225885635733793    0.9996639282564362
     0.0965918397263466    0.1118352106402902    0.4737626168323619
     0.0955761623309105    0.1078631216596474    0.9689091970486408
     0.0863846644551476    0.6025221852376763    0.4536837166648838
     0.1125240572146552    0.6226456280852855    0.9997915182710890
     0.5975979452379359    0.1106649281145109    0.4682328389268169
     0.5920552901148483    0.1045869677692937    0.9612619816414300
     0.5868821952745357    0.5970950444271487    0.4477997626217352
     0.5949764516430170    0.6074926525998432    0.9680503314433242
     0.1148374493112045    0.1020281718530812    0.2291743519373009
     0.1079439157002541    0.0916929010648117    0.7171278008076711
     0.1120933631642536    0.5983119713049294    0.2235157393894346
     0.1252248232305100    0.6103125123781816    0.7609017083462444
     0.6080325607880792    0.0952512269995229    0.2157477976025827
     0.6099723268574808    0.0916821489184258    0.7173158655169846
     0.6036728027872682    0.5900947276156641    0.2069384738988606
     0.6360944920874226    0.6102988642132262    0.7609248363420668
     0.1082349562493737    0.3726613987329005    0.2160135325186760
     0.1032495228665834    0.3786955155025435    0.7191678037440382
     0.1183340195357358    0.8822778152365415    0.2363470478510316
     0.1055446748966917    0.8662952594936075    0.7116823730555788
     0.6021170468013252    0.3674314560117812    0.2035746870271809
     0.6164509453483449    0.3787846329440454    0.7194756460430526
     0.6102692310180345    0.8754178997582978    0.2202406008031659
     0.6068683044335434    0.8662692297318290    0.7117839111923028
     0.1274584809339800    0.3910482656651887    0.0322257604125565
     0.1237578944305752    0.3985361582890207    0.5351247314281453
     0.1340253674275675    0.8967380968811894    0.0464831329673356
     0.1229631816293714    0.8879433439053125    0.5278741830026887
     0.6218183783687068    0.3846902994026732    0.0195135490701315
     0.6010108301139435    0.3745759150712221    0.4905639670007746
     0.6274945254477847    0.8907997267605497    0.0325083246003592
     0.6293454431210437    0.8891498217889855    0.5311126550397347
     0.3909160301141657    0.1288102000371057    0.2843862417618798
     0.3872211712374082    0.1200286503271370    0.7737192306385655
     0.3856078413644859    0.6228607454980477    0.2700989129684617
     0.3934740601855526    0.6314474847630209    0.7865606983343724
     0.8936807215086292    0.1287245719533793    0.2841379283064308
     0.8909276933297638    0.1235827504044499    0.7811312176816051
     0.8849782241711613    0.6229822327492620    0.2699738941581682
     0.9096504266254186    0.6457910890916096    0.8187971674026395
     0.3981426896921588    0.3846547198798686    0.0196243579493608
     0.4118434562987868    0.3985140360403464    0.5353346814797058
     0.4052822848386211    0.8908464358273177    0.0325377626491182
     0.4056017943101529    0.8879314214144248    0.5280832511556933
     0.9052992973558435    0.3910321822866477    0.0321696958004522
     0.8896985522325613    0.3744521437128115    0.4900238264044961
     0.9130168791128296    0.8967299651121744    0.0463075634688866
     0.9023734003380989    0.8893004957212856    0.5311555642208982

  0.00000000E+00  0.00000000E+00  0.00000000E+00
  0.00000000E+00  0.00000000E+00  0.00000000E+00
  0.00000000E+00  0.00000000E+00  0.00000000E+00
  0.00000000E+00  0.00000000E+00  0.00000000E+00
  0.00000000E+00  0.00000000E+00  0.00000000E+00
  0.00000000E+00  0.00000000E+00  0.00000000E+00
  0.00000000E+00  0.00000000E+00  0.00000000E+00
  0.00000000E+00  0.00000000E+00  0.00000000E+00
  0.00000000E+00  0.00000000E+00  0.00000000E+00
  0.00000000E+00  0.00000000E+00  0.00000000E+00
  0.00000000E+00  0.00000000E+00  0.00000000E+00
  0.00000000E+00  0.00000000E+00  0.00000000E+00
  0.00000000E+00  0.00000000E+00  0.00000000E+00
  0.00000000E+00  0.00000000E+00  0.00000000E+00
  0.00000000E+00  0.00000000E+00  0.00000000E+00
  0.00000000E+00  0.00000000E+00  0.00000000E+00
  0.00000000E+00  0.00000000E+00  0.00000000E+00
  0.00000000E+00  0.00000000E+00  0.00000000E+00
  0.00000000E+00  0.00000000E+00  0.00000000E+00
  0.00000000E+00  0.00000000E+00  0.00000000E+00
  0.00000000E+00  0.00000000E+00  0.00000000E+00
  0.00000000E+00  0.00000000E+00  0.00000000E+00
  0.00000000E+00  0.00000000E+00  0.00000000E+00
  0.00000000E+00  0.00000000E+00  0.00000000E+00
  0.00000000E+00  0.00000000E+00  0.00000000E+00
  0.00000000E+00  0.00000000E+00  0.00000000E+00
  0.00000000E+00  0.00000000E+00  0.00000000E+00
  0.00000000E+00  0.00000000E+00  0.00000000E+00
  0.00000000E+00  0.00000000E+00  0.00000000E+00
  0.00000000E+00  0.00000000E+00  0.00000000E+00
  0.00000000E+00  0.00000000E+00  0.00000000E+00
  0.00000000E+00  0.00000000E+00  0.00000000E+00
  0.00000000E+00  0.00000000E+00  0.00000000E+00
  0.00000000E+00  0.00000000E+00  0.00000000E+00
  0.00000000E+00  0.00000000E+00  0.00000000E+00
  0.00000000E+00  0.00000000E+00  0.00000000E+00
  0.00000000E+00  0.00000000E+00  0.00000000E+00
  0.00000000E+00  0.00000000E+00  0.00000000E+00
  0.00000000E+00  0.00000000E+00  0.00000000E+00
  0.00000000E+00  0.00000000E+00  0.00000000E+00
  0.00000000E+00  0.00000000E+00  0.00000000E+00
  0.00000000E+00  0.00000000E+00  0.00000000E+00
  0.00000000E+00  0.00000000E+00  0.00000000E+00
  0.00000000E+00  0.00000000E+00  0.00000000E+00
  0.00000000E+00  0.00000000E+00  0.00000000E+00
  0.00000000E+00  0.00000000E+00  0.00000000E+00
  0.00000000E+00  0.00000000E+00  0.00000000E+00
  0.00000000E+00  0.00000000E+00  0.00000000E+00
  0.00000000E+00  0.00000000E+00  0.00000000E+00
  0.00000000E+00  0.00000000E+00  0.00000000E+00
  0.00000000E+00  0.00000000E+00  0.00000000E+00
  0.00000000E+00  0.00000000E+00  0.00000000E+00
  0.00000000E+00  0.00000000E+00  0.00000000E+00
  0.00000000E+00  0.00000000E+00  0.00000000E+00
  0.00000000E+00  0.00000000E+00  0.00000000E+00
  0.00000000E+00  0.00000000E+00  0.00000000E+00
  0.00000000E+00  0.00000000E+00  0.00000000E+00
  0.00000000E+00  0.00000000E+00  0.00000000E+00
  0.00000000E+00  0.00000000E+00  0.00000000E+00
  0.00000000E+00  0.00000000E+00  0.00000000E+00
  0.00000000E+00  0.00000000E+00  0.00000000E+00
  0.00000000E+00  0.00000000E+00  0.00000000E+00
  0.00000000E+00  0.00000000E+00  0.00000000E+00
  0.00000000E+00  0.00000000E+00  0.00000000E+00
  0.00000000E+00  0.00000000E+00  0.00000000E+00
  0.00000000E+00  0.00000000E+00  0.00000000E+00
  0.00000000E+00  0.00000000E+00  0.00000000E+00
  0.00000000E+00  0.00000000E+00  0.00000000E+00
  0.00000000E+00  0.00000000E+00  0.00000000E+00
  0.00000000E+00  0.00000000E+00  0.00000000E+00
  0.00000000E+00  0.00000000E+00  0.00000000E+00
  0.00000000E+00  0.00000000E+00  0.00000000E+00
  0.00000000E+00  0.00000000E+00  0.00000000E+00
  0.00000000E+00  0.00000000E+00  0.00000000E+00
  0.00000000E+00  0.00000000E+00  0.00000000E+00
  0.00000000E+00  0.00000000E+00  0.00000000E+00
  0.00000000E+00  0.00000000E+00  0.00000000E+00
  0.00000000E+00  0.00000000E+00  0.00000000E+00
  0.00000000E+00  0.00000000E+00  0.00000000E+00
  0.00000000E+00  0.00000000E+00  0.00000000E+00
  0.00000000E+00  0.00000000E+00  0.00000000E+00
  0.00000000E+00  0.00000000E+00  0.00000000E+00
  0.00000000E+00  0.00000000E+00  0.00000000E+00
  0.00000000E+00  0.00000000E+00  0.00000000E+00
  0.00000000E+00  0.00000000E+00  0.00000000E+00
  0.00000000E+00  0.00000000E+00  0.00000000E+00
  0.00000000E+00  0.00000000E+00  0.00000000E+00
  0.00000000E+00  0.00000000E+00  0.00000000E+00
  0.00000000E+00  0.00000000E+00  0.00000000E+00
  0.00000000E+00  0.00000000E+00  0.00000000E+00
  0.00000000E+00  0.00000000E+00  0.00000000E+00
  0.00000000E+00  0.00000000E+00  0.00000000E+00
  0.00000000E+00  0.00000000E+00  0.00000000E+00
  0.00000000E+00  0.00000000E+00  0.00000000E+00
  0.00000000E+00  0.00000000E+00  0.00000000E+00
  0.00000000E+00  0.00000000E+00  0.00000000E+00
