System                                  
   1.0000000000000000     
     5.4689161755484470    0.0226084946128573    8.3110333776100340
     2.5059663634945699    4.8610418671421582    8.3110254998131232
     0.0369372448508841    0.0226336200103960    9.9490261522859775
  Li              Co              O             
     8     8    16
Direct
     0.2500003691241894    0.2499990430047283    0.2499998772431349
     0.2500003092333596    0.2499987936145415    0.7499998880758594
     0.2500004283344411    0.7499989377501333    0.2500000509727765
     0.2500004062842690    0.7499989117028988    0.7500000431754411
     0.7500006427052130    0.2499989217756024    0.2500000003320721
     0.7500006281880927    0.2499988768982400    0.7499999256562754
     0.7500008330623565    0.7499989749905295    0.2500000934862303
     0.7500006585993425    0.7499989098966889    0.7500000903710967
     0.0000001850000035    0.9999993665259742    0.9999999470211726
     0.0000002466218707    0.9999993413631200    0.4999998743919976
     0.0000002274717122    0.4999993118827787    0.9999999335132375
     0.0000002011491159    0.4999993839685109    0.4999999171052958
     0.5000001638932769    0.9999993332718218    0.9999999645937793
     0.5000002462863767    0.9999993616087018    0.4999998904667411
     0.5000002382084253    0.4999993480731230    0.9999999201058335
     0.5000002045326806    0.4999993618958005    0.4999999078393281
     0.1297248984999194    0.1297237805321818    0.1297312994090944
     0.1297250949605708    0.1297237514422671    0.6297311838219830
     0.1297250613560204    0.6297234282656936    0.1297313141890715
     0.1297250012988922    0.6297235497324530    0.6297314204747975
     0.6297252203031019    0.1297234749632571    0.1297311796794529
     0.6297253940608692    0.1297234486345493    0.6297310327902932
     0.6297254424223115    0.6297232365525038    0.1297311049060722
     0.6297254511924280    0.6297234885172485    0.6297311827690492
     0.3702751593988124    0.3702751533552102    0.3702687769702764
     0.3702752996635923    0.3702753699487971    0.8702688477159630
     0.3702752635291954    0.8702751499654452    0.3702689719993488
     0.3702754119966514    0.8702751891890403    0.8702687519302275
     0.8702756597436230    0.3702750713949324    0.3702686022307966
     0.8702755836541413    0.3702752057757998    0.8702686191400718
     0.8702755460224783    0.8702748726899727    0.3702687438042401
     0.8702757502354250    0.8702749010380840    0.8702686927339413

  0.00000000E+00  0.00000000E+00  0.00000000E+00
  0.00000000E+00  0.00000000E+00  0.00000000E+00
  0.00000000E+00  0.00000000E+00  0.00000000E+00
  0.00000000E+00  0.00000000E+00  0.00000000E+00
  0.00000000E+00  0.00000000E+00  0.00000000E+00
  0.00000000E+00  0.00000000E+00  0.00000000E+00
  0.00000000E+00  0.00000000E+00  0.00000000E+00
  0.00000000E+00  0.00000000E+00  0.00000000E+00
  0.00000000E+00  0.00000000E+00  0.00000000E+00
  0.00000000E+00  0.00000000E+00  0.00000000E+00
  0.00000000E+00  0.00000000E+00  0.00000000E+00
  0.00000000E+00  0.00000000E+00  0.00000000E+00
  0.00000000E+00  0.00000000E+00  0.00000000E+00
  0.00000000E+00  0.00000000E+00  0.00000000E+00
  0.00000000E+00  0.00000000E+00  0.00000000E+00
  0.00000000E+00  0.00000000E+00  0.00000000E+00
  0.00000000E+00  0.00000000E+00  0.00000000E+00
  0.00000000E+00  0.00000000E+00  0.00000000E+00
  0.00000000E+00  0.00000000E+00  0.00000000E+00
  0.00000000E+00  0.00000000E+00  0.00000000E+00
  0.00000000E+00  0.00000000E+00  0.00000000E+00
  0.00000000E+00  0.00000000E+00  0.00000000E+00
  0.00000000E+00  0.00000000E+00  0.00000000E+00
  0.00000000E+00  0.00000000E+00  0.00000000E+00
  0.00000000E+00  0.00000000E+00  0.00000000E+00
  0.00000000E+00  0.00000000E+00  0.00000000E+00
  0.00000000E+00  0.00000000E+00  0.00000000E+00
  0.00000000E+00  0.00000000E+00  0.00000000E+00
  0.00000000E+00  0.00000000E+00  0.00000000E+00
  0.00000000E+00  0.00000000E+00  0.00000000E+00
  0.00000000E+00  0.00000000E+00  0.00000000E+00
  0.00000000E+00  0.00000000E+00  0.00000000E+00
