System                                  
   1.0000000000000000     
     5.5847326826847210    0.0285759696764759   -0.1264248926010546
    -1.5716343239657256    6.2190878568252135   -1.9834687409229983
     0.1033869082301798   -0.0504447472155811    8.6565471686278386
  Au              S               O             
     1     4    14
Direct
     0.4999840415362076    0.4999940577147782    0.5000000982309740
     0.9530379258427467    0.7359700108107723    0.7558755516781696
     0.0469596370496019    0.2640259264749556    0.2441258690097291
     0.6748238344372834    0.3053792452279118    0.7545902665309453
     0.3251900440318233    0.6945785775334354    0.2453883442111231
     0.0683200624976233    0.4980988066732933    0.2115608809756430
     0.9316998152065519    0.5019108277942844    0.7884334366361879
     0.3801093745941985    0.7170241180290851    0.0894943340680001
     0.6199069146435727    0.2829841084859933    0.9105147654761525
     0.1999052192390535    0.1512788005691988    0.1367455456577811
     0.8001038595396114    0.8487365808066135    0.8632758801623972
     0.5254944530246405    0.6008765568474260    0.3011801107061786
     0.2122279253269412    0.8184528319110097    0.7588152202410595
     0.7346564327362309    0.1313234183564561    0.6300206935926492
     0.4744964522303494    0.3991150470687352    0.6988251157209799
     0.1509585229644597    0.3352634267696579    0.4256571406950707
     0.8490058770928977    0.6647508533008809    0.5743519245933028
     0.7877623775320550    0.1815497232715289    0.2411650692920085
     0.2653572304741525    0.8686870823539853    0.3699797525216489

  0.00000000E+00  0.00000000E+00  0.00000000E+00
  0.00000000E+00  0.00000000E+00  0.00000000E+00
  0.00000000E+00  0.00000000E+00  0.00000000E+00
  0.00000000E+00  0.00000000E+00  0.00000000E+00
  0.00000000E+00  0.00000000E+00  0.00000000E+00
  0.00000000E+00  0.00000000E+00  0.00000000E+00
  0.00000000E+00  0.00000000E+00  0.00000000E+00
  0.00000000E+00  0.00000000E+00  0.00000000E+00
  0.00000000E+00  0.00000000E+00  0.00000000E+00
  0.00000000E+00  0.00000000E+00  0.00000000E+00
  0.00000000E+00  0.00000000E+00  0.00000000E+00
  0.00000000E+00  0.00000000E+00  0.00000000E+00
  0.00000000E+00  0.00000000E+00  0.00000000E+00
  0.00000000E+00  0.00000000E+00  0.00000000E+00
  0.00000000E+00  0.00000000E+00  0.00000000E+00
  0.00000000E+00  0.00000000E+00  0.00000000E+00
  0.00000000E+00  0.00000000E+00  0.00000000E+00
  0.00000000E+00  0.00000000E+00  0.00000000E+00
  0.00000000E+00  0.00000000E+00  0.00000000E+00
