System                                  
   1.0000000000000000     
    11.4009387477082118   -0.1270461853059910   -0.2333408100202317
    -5.7172201767325017    9.9979219821615430    0.0770862630575056
     0.0362140596339119    0.0921245990614989    9.2636120848112711
  Li              Mn              Co              Ni              O             
     9    12     8    12    64
Direct
     0.1717547771746126    0.3368765468293013    0.8987793840491166
     0.1729291550554903    0.8376917331870604    0.9010773580478468
     0.6744686087771526    0.3371545487236488    0.8967868848279106
     0.6743943534448741    0.8397358913484755    0.8976823994910622
     0.4929445352142369    0.4974398985503444    0.4923192052962334
     0.3315039460333178    0.1598488753177277    0.4018579604045576
     0.3304922354144433    0.6616776968207823    0.4030687135169611
     0.8307530492072860    0.1669244966977420    0.4007743775402717
     0.8330771342764514    0.6686565058738594    0.4033107516505731
     0.0827795953800046    0.4130848523222696    0.2099312786360174
     0.0837572702966002    0.9130888042188697    0.2110786801913457
     0.5844867042533406    0.4189070006187728    0.2061942107859578
     0.5830151713405654    0.9201452974030280    0.2107961594124516
     0.0841659514402233    0.1634156586593950    0.2123054712092830
     0.0847101785134919    0.6641988585259589    0.2154805398423252
     0.5837065686283913    0.1706669764772737    0.2080241779895247
     0.5852086831230553    0.6734666663888971    0.2041189716573996
     0.1672024741778209    0.0817380998489941    0.7088494258554243
     0.1661993321960608    0.5813587987193753    0.7120057792665890
     0.6667405395831538    0.0826765919727699    0.7096864782679496
     0.6684819744374018    0.5847904882622572    0.7202969120396514
     0.1662615366459931    0.3253813287368522    0.4851529761112052
     0.1694130615012127    0.8290370630084950    0.4865743306081590
     0.6671855213804703    0.3350416874506847    0.4837498749237886
     0.6670965064397509    0.8358629753140079    0.4824207731482499
     0.3408054180417148    0.1721857873583159    0.9830745571569507
     0.3403399590818091    0.6742056228764930    0.9842309264705111
     0.8418470903221292    0.1710129314172471    0.9820744809623424
     0.8430616497722510    0.6710801653452766    0.9852723972498301
     0.4192848382794904    0.0869694763281198    0.7100520288645078
     0.4179312646748705    0.5863552377555684    0.7192040465700985
     0.9165793300980202    0.0845180393085774    0.7083492307595151
     0.9172276865265596    0.5853638651524404    0.7135872449834075
     0.3310971595565657    0.4140444723239073    0.2045738197627927
     0.3323109952369676    0.9143948425352658    0.2100109293955894
     0.8328103063475397    0.4188643331288591    0.2094648068013271
     0.8330184162376085    0.9188625356020468    0.2083175177166154
     0.4149124981269118    0.3311667872419815    0.7174107696638828
     0.4151065545402070    0.8317491929589155    0.7115098100030002
     0.9176126069721701    0.3318123855051990    0.7097902818782005
     0.9176797030413141    0.8331969213858155    0.7092908089547189
     0.1710867953833743    0.0837145930045607    0.1067721851406590
     0.1715114863680319    0.5848260530258985    0.1088130290538953
     0.6713978435885977    0.0891866597472657    0.1067280663174784
     0.6729111970667873    0.5895926518369998    0.1038967811634181
     0.4194600648450907    0.3374390939525720    0.0897086785548584
     0.4195653160951078    0.8392743892322951    0.0926131851186767
     0.9181536493251587    0.3249004016628282    0.0982017033315925
     0.9189885433336571    0.8252477229554002    0.0980086594864174
     0.3376669611858931    0.1724383353799822    0.6107069388284608
     0.3360166893314054    0.6683581919691749    0.6122421993221985
     0.8352755899164502    0.1681200188141473    0.6082647089214948
     0.8335093612569884    0.6681596006359174    0.6124399727335960
     0.2631810918534230    0.0251672811462679    0.8421215222126769
     0.2624274812038208    0.5254074360564043    0.8464319170430196
     0.7607719520630868    0.0236092614826048    0.8412053368973026
     0.7630582511818081    0.5231391881035984    0.8446595716342875
     0.2616730610622951    0.2393742530830800    0.8392445956295265
     0.2604660973855081    0.7391636227368994    0.8393829293594245
     0.7620050385872753    0.2384741662808399    0.8392783705514677
     0.7612031921979663    0.7381776942514535    0.8452751728796586
     0.3300008864737630    0.4087979292701259    0.5984260770923150
     0.3208114457951109    0.9058282176285984    0.5978280692977451
     0.8161993725413802    0.4099695636826180    0.5954620693422314
     0.8149530060844560    0.9088894827671583    0.5928276475341766
     0.2334359914267304    0.2498259237728896    0.3481912998058748
     0.2325042621984078    0.7492519271670746    0.3511682446725948
     0.7361398383224316    0.2621481360430576    0.3435249987552239
     0.7348783251280575    0.7602714204652099    0.3425898032878913
     0.0185958627281402    0.2554906233322643    0.3379813132594789
     0.0197697073242938    0.7570092587033366    0.3401171871311411
     0.5178828956458923    0.2613118152736220    0.3345000379598790
     0.5176863888628561    0.7592515887675761    0.3347523548411289
     0.0855323127058945    0.1676621466862209    0.5984253278693354
     0.0805688224532548    0.6610842886942664    0.5979892656758746
     0.5833270311480117    0.1650614129854387    0.5954326587131141
     0.5809487015415058    0.6612911337023322    0.6006037503048772
    -0.0018745767082041   -0.0015501075027290    0.8051258593283115
     0.9974955518407507    0.4966708373346356    0.8085253157029956
     0.4973522796612766    0.9975192226100841    0.8070845928352666
     0.4967964254316793    0.4956163224346157    0.8158278763548912
     0.9984839707026796    0.9949919638809785    0.3099330165601372
     0.9985556961513705    0.4943363365845438    0.3110618143943676
     0.4982752091919385    0.0018161389708639    0.3082339640449657
     0.4981105038041924    0.5017029831682878    0.2997556405596200
     0.1665332359687439    0.3307167584560345    0.1063034750600979
     0.1678262797194921    0.8310114914159611    0.1091458449013217
     0.6678083659948099    0.3381710204504669    0.1044261816701211
     0.6680545945656529    0.8398786132973387    0.1047479416090453
     0.4834775904058703    0.2514731822191033    0.8470203548952622
     0.4831417575675732    0.7519852787772031    0.8492899623543180
     0.9829531470609474    0.2418328770685537    0.8512121041006340
     0.9836979944048999    0.7397989617703052    0.8533268494579381
     0.0859447395473818    0.4164248979025165    0.6021880931854968
     0.0874171313222328    0.9189323175788215    0.5991380815018141
     0.5782682923799086    0.4188237931901961    0.6034869316715387
     0.5798230697940746    0.9175643511251054    0.5987464848849551
     0.2385277038024099    0.4724146580475370    0.3446288688357626
     0.2384715600562427    0.9738696230316574    0.3449998948059159
     0.7295282327553422    0.4812742104815099    0.3479074802271636
     0.7315663720216053    0.9805182729870794    0.3475198913932836
     0.4184241648691940    0.0966281387065000    0.0946417737889798
     0.4191448953610668    0.5982475378183324    0.0928158125548470
     0.9219004709251946    0.0860027173010313    0.0944693550040745
     0.9221731337949244    0.5858258988899681    0.0973887153896902

  0.00000000E+00  0.00000000E+00  0.00000000E+00
  0.00000000E+00  0.00000000E+00  0.00000000E+00
  0.00000000E+00  0.00000000E+00  0.00000000E+00
  0.00000000E+00  0.00000000E+00  0.00000000E+00
  0.00000000E+00  0.00000000E+00  0.00000000E+00
  0.00000000E+00  0.00000000E+00  0.00000000E+00
  0.00000000E+00  0.00000000E+00  0.00000000E+00
  0.00000000E+00  0.00000000E+00  0.00000000E+00
  0.00000000E+00  0.00000000E+00  0.00000000E+00
  0.00000000E+00  0.00000000E+00  0.00000000E+00
  0.00000000E+00  0.00000000E+00  0.00000000E+00
  0.00000000E+00  0.00000000E+00  0.00000000E+00
  0.00000000E+00  0.00000000E+00  0.00000000E+00
  0.00000000E+00  0.00000000E+00  0.00000000E+00
  0.00000000E+00  0.00000000E+00  0.00000000E+00
  0.00000000E+00  0.00000000E+00  0.00000000E+00
  0.00000000E+00  0.00000000E+00  0.00000000E+00
  0.00000000E+00  0.00000000E+00  0.00000000E+00
  0.00000000E+00  0.00000000E+00  0.00000000E+00
  0.00000000E+00  0.00000000E+00  0.00000000E+00
  0.00000000E+00  0.00000000E+00  0.00000000E+00
  0.00000000E+00  0.00000000E+00  0.00000000E+00
  0.00000000E+00  0.00000000E+00  0.00000000E+00
  0.00000000E+00  0.00000000E+00  0.00000000E+00
  0.00000000E+00  0.00000000E+00  0.00000000E+00
  0.00000000E+00  0.00000000E+00  0.00000000E+00
  0.00000000E+00  0.00000000E+00  0.00000000E+00
  0.00000000E+00  0.00000000E+00  0.00000000E+00
  0.00000000E+00  0.00000000E+00  0.00000000E+00
  0.00000000E+00  0.00000000E+00  0.00000000E+00
  0.00000000E+00  0.00000000E+00  0.00000000E+00
  0.00000000E+00  0.00000000E+00  0.00000000E+00
  0.00000000E+00  0.00000000E+00  0.00000000E+00
  0.00000000E+00  0.00000000E+00  0.00000000E+00
  0.00000000E+00  0.00000000E+00  0.00000000E+00
  0.00000000E+00  0.00000000E+00  0.00000000E+00
  0.00000000E+00  0.00000000E+00  0.00000000E+00
  0.00000000E+00  0.00000000E+00  0.00000000E+00
  0.00000000E+00  0.00000000E+00  0.00000000E+00
  0.00000000E+00  0.00000000E+00  0.00000000E+00
  0.00000000E+00  0.00000000E+00  0.00000000E+00
  0.00000000E+00  0.00000000E+00  0.00000000E+00
  0.00000000E+00  0.00000000E+00  0.00000000E+00
  0.00000000E+00  0.00000000E+00  0.00000000E+00
  0.00000000E+00  0.00000000E+00  0.00000000E+00
  0.00000000E+00  0.00000000E+00  0.00000000E+00
  0.00000000E+00  0.00000000E+00  0.00000000E+00
  0.00000000E+00  0.00000000E+00  0.00000000E+00
  0.00000000E+00  0.00000000E+00  0.00000000E+00
  0.00000000E+00  0.00000000E+00  0.00000000E+00
  0.00000000E+00  0.00000000E+00  0.00000000E+00
  0.00000000E+00  0.00000000E+00  0.00000000E+00
  0.00000000E+00  0.00000000E+00  0.00000000E+00
  0.00000000E+00  0.00000000E+00  0.00000000E+00
  0.00000000E+00  0.00000000E+00  0.00000000E+00
  0.00000000E+00  0.00000000E+00  0.00000000E+00
  0.00000000E+00  0.00000000E+00  0.00000000E+00
  0.00000000E+00  0.00000000E+00  0.00000000E+00
  0.00000000E+00  0.00000000E+00  0.00000000E+00
  0.00000000E+00  0.00000000E+00  0.00000000E+00
  0.00000000E+00  0.00000000E+00  0.00000000E+00
  0.00000000E+00  0.00000000E+00  0.00000000E+00
  0.00000000E+00  0.00000000E+00  0.00000000E+00
  0.00000000E+00  0.00000000E+00  0.00000000E+00
  0.00000000E+00  0.00000000E+00  0.00000000E+00
  0.00000000E+00  0.00000000E+00  0.00000000E+00
  0.00000000E+00  0.00000000E+00  0.00000000E+00
  0.00000000E+00  0.00000000E+00  0.00000000E+00
  0.00000000E+00  0.00000000E+00  0.00000000E+00
  0.00000000E+00  0.00000000E+00  0.00000000E+00
  0.00000000E+00  0.00000000E+00  0.00000000E+00
  0.00000000E+00  0.00000000E+00  0.00000000E+00
  0.00000000E+00  0.00000000E+00  0.00000000E+00
  0.00000000E+00  0.00000000E+00  0.00000000E+00
  0.00000000E+00  0.00000000E+00  0.00000000E+00
  0.00000000E+00  0.00000000E+00  0.00000000E+00
  0.00000000E+00  0.00000000E+00  0.00000000E+00
  0.00000000E+00  0.00000000E+00  0.00000000E+00
  0.00000000E+00  0.00000000E+00  0.00000000E+00
  0.00000000E+00  0.00000000E+00  0.00000000E+00
  0.00000000E+00  0.00000000E+00  0.00000000E+00
  0.00000000E+00  0.00000000E+00  0.00000000E+00
  0.00000000E+00  0.00000000E+00  0.00000000E+00
  0.00000000E+00  0.00000000E+00  0.00000000E+00
  0.00000000E+00  0.00000000E+00  0.00000000E+00
  0.00000000E+00  0.00000000E+00  0.00000000E+00
  0.00000000E+00  0.00000000E+00  0.00000000E+00
  0.00000000E+00  0.00000000E+00  0.00000000E+00
  0.00000000E+00  0.00000000E+00  0.00000000E+00
  0.00000000E+00  0.00000000E+00  0.00000000E+00
  0.00000000E+00  0.00000000E+00  0.00000000E+00
  0.00000000E+00  0.00000000E+00  0.00000000E+00
  0.00000000E+00  0.00000000E+00  0.00000000E+00
  0.00000000E+00  0.00000000E+00  0.00000000E+00
  0.00000000E+00  0.00000000E+00  0.00000000E+00
  0.00000000E+00  0.00000000E+00  0.00000000E+00
  0.00000000E+00  0.00000000E+00  0.00000000E+00
  0.00000000E+00  0.00000000E+00  0.00000000E+00
  0.00000000E+00  0.00000000E+00  0.00000000E+00
  0.00000000E+00  0.00000000E+00  0.00000000E+00
  0.00000000E+00  0.00000000E+00  0.00000000E+00
  0.00000000E+00  0.00000000E+00  0.00000000E+00
  0.00000000E+00  0.00000000E+00  0.00000000E+00
  0.00000000E+00  0.00000000E+00  0.00000000E+00
  0.00000000E+00  0.00000000E+00  0.00000000E+00
