System
1.0
5.428657453556457 0.086846284985554 8.440773612735333
2.5160459920830096 4.910446139665753 8.458807402768997
0.0437988128021653 0.0653228616541176 10.099609870299854
Li Co O 
3 8 16 
direct
0.7397007530525587 0.2555268165857726 0.2563091354057446 Li
0.7419107806858383 0.2545589156405932 0.7550362634046397 Li
0.7394060343580064 0.7559965196684181 0.7560713284208156 Li
0.0041241389640439 0.0005783522862569 0.0002693301228811 Co
0.0047080936571953 6.42441235006e-05 0.5008224145096568 Co
0.0047618568119431 0.5000614673532804 0.0008365624700387 Co
0.0040997306451188 0.5005515121064119 0.5001989235409005 Co
0.4989518671005843 0.997954271522332 0.998729065193881 Co
0.4983418406734529 0.9983928067682405 0.4980183868041812 Co
0.4983380338315316 0.4983666296279299 0.9980549322459995 Co
0.4989505069609542 0.4979200481248896 0.4987002234632618 Co
0.1194724964583243 0.1397148717487811 0.1406584197830474 O
0.1185914496918118 0.1402564107018215 0.6401165973621787 O
0.1186352715724369 0.6404188053885056 0.140010155628663 O
0.1193531575061404 0.6398595831266403 0.640561649201507 O
0.6454153675043056 0.1238255481805733 0.1234512766569534 O
0.6456713160127154 0.1233649089574833 0.6243808446283621 O
0.6455640939158341 0.623587315654439 0.1241868624442423 O
0.6452800042902591 0.6237025486957651 0.6235320202311357 O
0.3742975360621932 0.3628750076270809 0.3624093634375622 O
0.3749941614601353 0.3622823133112137 0.8631184512025103 O
0.3748403314909553 0.8623717740748892 0.3630726642537984 O
0.3742923814484634 0.8627866282944525 0.8624773117051365 O
0.8678318250170158 0.3692578563216315 0.370087204985044 O
0.8672042285118317 0.3698435710358856 0.8694455588176689 O
0.8672644530794372 0.8698600949749649 0.3694636067672535 O
0.8677753021221647 0.8694678215050129 0.8700251193742359 O
