System                                  
   1.0000000000000000     
     5.6659202855936197    0.1082099621366784    9.7452894964078975
     2.7100524548957758    4.9636094102972779    9.7429629288233421
     0.2586691438836337    0.1525915480997899   11.2465210028597902
  Na              Co              O             
     3     8    16
Direct
     0.2482483887322612    0.7473672130406536    0.2539513789841474
     0.2532106760095192    0.7490613197712201    0.7479767987293567
     0.7489860236987410    0.2494688275037716    0.2511969017557034
    -0.0007841881565911    0.0000276669117152   -0.0004822239601319
     0.9996897056786284    1.0011685199627118    0.5004238468523191
     0.9997357925288921    0.4996509455779667    0.9991050998439687
    -0.0009149989360149    0.4994144870051229    0.5005545626909875
     0.5003190406211389    1.0011623122320632    0.9997265899606541
     0.5005194248416387   -0.0002190840502170    0.5009174479096272
     0.5004056250130614    0.4990355687903589   -0.0009631432262440
     0.4999568947734694    0.5003209768658029    0.5002635638939840
     0.1380083291440397    0.1341830602096802    0.1350381099876637
     0.1418534040667858    0.1358204463442463    0.6334235550378343
     0.1358069102038186    0.6346007521391366    0.1414206472343632
     0.1335425361994383    0.6412359973161905    0.6360814165645348
     0.6377429109622861    0.1387046762478905    0.1392684343450846
     0.6355813083345172    0.1345466428900759    0.6402396274884988
     0.6361127514867871    0.6391368429900467    0.1320531255679175
     0.6361198501218530    0.6408381807151500    0.6343106737346420
     0.3628952418996679    0.3646901961866560    0.3646619310102038
     0.3572255379882400    0.3628446141901508    0.8688677544134132
     0.3639022698370226    0.8660702602537512    0.3589790319218015
     0.3619079153294958    0.8611103997406929    0.8654017658955272
     0.8662843509707248    0.3607600194852278    0.3578554756089505
     0.8646119401307836    0.3651712902101345    0.8595938593239002
     0.8644300078055177    0.8626537597101653    0.3652378981727226
     0.8632530337165490    0.8599435031801826    0.8659724499261975

  0.00000000E+00  0.00000000E+00  0.00000000E+00
  0.00000000E+00  0.00000000E+00  0.00000000E+00
  0.00000000E+00  0.00000000E+00  0.00000000E+00
  0.00000000E+00  0.00000000E+00  0.00000000E+00
  0.00000000E+00  0.00000000E+00  0.00000000E+00
  0.00000000E+00  0.00000000E+00  0.00000000E+00
  0.00000000E+00  0.00000000E+00  0.00000000E+00
  0.00000000E+00  0.00000000E+00  0.00000000E+00
  0.00000000E+00  0.00000000E+00  0.00000000E+00
  0.00000000E+00  0.00000000E+00  0.00000000E+00
  0.00000000E+00  0.00000000E+00  0.00000000E+00
  0.00000000E+00  0.00000000E+00  0.00000000E+00
  0.00000000E+00  0.00000000E+00  0.00000000E+00
  0.00000000E+00  0.00000000E+00  0.00000000E+00
  0.00000000E+00  0.00000000E+00  0.00000000E+00
  0.00000000E+00  0.00000000E+00  0.00000000E+00
  0.00000000E+00  0.00000000E+00  0.00000000E+00
  0.00000000E+00  0.00000000E+00  0.00000000E+00
  0.00000000E+00  0.00000000E+00  0.00000000E+00
  0.00000000E+00  0.00000000E+00  0.00000000E+00
  0.00000000E+00  0.00000000E+00  0.00000000E+00
  0.00000000E+00  0.00000000E+00  0.00000000E+00
  0.00000000E+00  0.00000000E+00  0.00000000E+00
  0.00000000E+00  0.00000000E+00  0.00000000E+00
  0.00000000E+00  0.00000000E+00  0.00000000E+00
  0.00000000E+00  0.00000000E+00  0.00000000E+00
  0.00000000E+00  0.00000000E+00  0.00000000E+00
