System
1.0
9.897317950528732 -0.0029271268046785 -0.0007080970859342
0.0041209076868966 12.699359464741258 -0.0001603373987241
0.0006672815599464 0.000126383522056 9.369809233586876
Li Fe P O 
14 16 16 64 
direct
0.2335771026234432 0.1255171946953657 0.1634523740145262 Li
0.2370800878440183 0.6241908855714192 0.1699592136126493 Li
0.7341231971828279 0.1246474242257659 0.1708670396672453 Li
0.7359026050394949 0.6242668181621915 0.1709833458868349 Li
0.4881222594547262 0.3759132456453521 0.3306010374447331 Li
0.4888459551886729 0.8731129637716641 0.3341655735979059 Li
0.9887006293668047 0.3728277303230181 0.3292201209066161 Li
0.9819780888974572 0.8736937828364364 0.327056944606856 Li
0.0083475497938805 0.6233564370440513 0.6788408782887714 Li
0.5119138363338884 0.6251320831062139 0.6712778856422915 Li
0.2627609557843786 0.3731895547367381 0.8268296336501793 Li
0.2636064852399616 0.875521922265956 0.828692977238162 Li
0.7658433065659416 0.374632470078155 0.8294747136673278 Li
0.7646851107462249 0.8766163081423968 0.8278261847282453 Li
0.0025100815070803 0.002131818549203 0.9937002017840483 Fe
0.9998306719593314 0.4993295006014257 0.000654772014429 Fe
0.4994429098333887 0.0007152634233035 0.9984450710818605 Fe
0.500687485256226 0.499429943378888 0.0016956382506165 Fe
0.0030434898724775 0.2478852369535929 0.9940807676969882 Fe
0.0012712537163446 0.7508205265078443 0.0015493373841515 Fe
0.4991840851876441 0.2492812565849281 0.9978479825244105 Fe
0.4998968240929398 0.7501809589047371 0.9998471121912436 Fe
0.2448325966093401 0.0037199506085999 0.4993955927507769 Fe
0.2476734666295141 0.5005916380210085 0.501847228619953 Fe
0.7531305863603627 0.0004514791825979 0.5023750968069151 Fe
0.750876489756801 0.5001232745162991 0.5009018522337705 Fe
0.2511864434670232 0.2523980039789102 0.5023281923633721 Fe
0.2463331829220862 0.7463711646346313 0.5005233147907275 Fe
0.7575366235095283 0.2509907713328154 0.5056221678557788 Fe
0.7481978180282072 0.7493403738061678 0.498756406302242 Fe
0.2608572395516887 0.1219039872615661 0.8185602226847557 P
0.2638234188196478 0.6258413089647448 0.8243064636588715 P
0.7622543724249785 0.1247988998158302 0.8224110577279031 P
0.7629131042242787 0.6268523201792782 0.8223754561635064 P
0.0155531679402404 0.3797357440206753 0.6775032457345737 P
0.0154031496468787 0.8677140482952779 0.6754393368635522 P
0.5140642103063541 0.3779888737923759 0.6783875214203567 P
0.5108679179442097 0.875477632272128 0.6747011846561702 P
0.4833732147997427 0.1268870697006808 0.323223961535295 P
0.4848052416309979 0.6251113093683632 0.3224219560943467 P
0.9886584294610111 0.1215548437011779 0.3241782054198644 P
0.9862153089621121 0.6250116070044675 0.3210672866965096 P
0.237519919284848 0.3751121725003115 0.1776009325956128 P
0.2379690110068506 0.8772226604381205 0.181437681485272 P
0.7373740316952498 0.3735262762875644 0.1794991201860432 P
0.7359559689202777 0.8750925353149284 0.1769402686661983 P
0.1130278159502001 0.1235710766981327 0.8711814782630656 O
0.1108037358279326 0.6259399966888325 0.8656172666884073 O
0.6096473249896456 0.1245385927459908 0.871214259578317 O
0.6097559077458594 0.6272564140745178 0.862653928728194 O
0.0398479624656035 0.3767910101862661 0.8443705910642292 O
0.0444786051405575 0.8742886130801878 0.8403653321099275 O
0.540424801691726 0.3759291106563544 0.844633084941036 O
0.5353641970733234 0.8751981861293311 0.840620202163723 O
0.2824603864530414 0.1178787761715255 0.6491577686744943 O
0.2926325053702026 0.6257696977073741 0.6586047552559188 O
0.7662388830000205 0.1250974942844218 0.6556469506782808 O
0.7882253860431733 0.6267592110610909 0.6560514578558894 O
0.3605842085783978 0.3786054354459246 0.6392049620240127 O
0.3563281442243119 0.8786003863752379 0.6317251621439172 O
0.8614815994837054 0.3768404417856201 0.6383677178877302 O
0.8622852879127098 0.8741071822628584 0.6375923822873962 O
0.0882433633778086 0.2853878839529502 0.6137900441311359 O
0.0751001938417703 0.7629102243166659 0.6210433411638655 O
0.5807889603271983 0.2784287019933546 0.6161023184237301 O
0.5750425127897736 0.773656598534791 0.6156626510464165 O
0.0766126618026555 0.4848112008663316 0.622816076740113 O
0.0904910506011612 0.9605918393202975 0.6047946346092122 O
0.5805558142209657 0.4794369452052875 0.6204252009658088 O
0.5786912604615219 0.9747643938897008 0.6141660159164822 O
0.4119920687940132 0.0280543641686869 0.3890160559126949 O
0.4189679311476814 0.5242432701698055 0.3826087999872956 O
0.9202543257064012 0.0208758301347421 0.3805230462828872 O
0.9194449742401422 0.5239896808500878 0.3796158404044496 O
0.1724537663474198 0.2738904661989937 0.116785381653173 O
0.1698098516763712 0.7755705242405628 0.1273534083346685 O
0.6686740426432508 0.2731739667402291 0.1204384522828671 O
0.6695928094801356 0.7741195777014633 0.1172284798264009 O
0.1441340984854394 0.1167902366654993 0.36577669657294 O
0.1397778758148038 0.6250599485766476 0.3603330096758818 O
0.6363555629514039 0.1225524401448667 0.3599809595051449 O
0.6385106087212845 0.6260531961447621 0.3611944841088933 O
0.2094078194900584 0.3756261482007952 0.3432719250397341 O
0.2111735815293988 0.8808937207424615 0.3501254286280164 O
0.7128620526350974 0.3734569301951515 0.346086147483501 O
0.7091023850311541 0.874923703424162 0.3433038957415601 O
0.4535394300996929 0.1240149695083503 0.1582747820523091 O
0.4588416379261898 0.6249492312462211 0.1562621394132621 O
0.9671052692986881 0.1237368244072354 0.1577298717925813 O
0.9607175201229791 0.6253140492596166 0.1547326428791662 O
0.3913696605832835 0.3748627836223642 0.1391671258317584 O
0.3914347111838005 0.876452026270808 0.1448071299584211 O
0.8904637413052021 0.373078483905486 0.1387648455061112 O
0.8894467562828721 0.875013133675962 0.137516943590921 O
0.3336132703021443 0.2233495150444274 0.868466220856445 O
0.3285106827121974 0.7278237715163105 0.8839775122821851 O
0.8298626483031473 0.22566060264876 0.8797073268627787 O
0.8310116739066693 0.7277743315386156 0.8807750463171973 O
0.171027495789554 0.4758455219934715 0.1175470687344077 O
0.1711544699779153 0.9762232049381256 0.1185488273728843 O
0.6705453985380491 0.4748719452654794 0.1207722737989433 O
0.6694127528087901 0.9759488797409365 0.1173716808282642 O
0.4197617444269801 0.2285293353369252 0.382997961474404 O
0.4170052666668015 0.725908224083773 0.3814552619645604 O
0.925521133414088 0.2232177902498617 0.3833867764739061 O
0.9190474606404226 0.7260409303475867 0.3797524085180322 O
0.3306710953670924 0.0215161980042321 0.8764730907922069 O
0.331031220248751 0.525330241754164 0.8838099411569358 O
0.8301180468044538 0.0233749985574721 0.8782274981977988 O
0.8297534141335375 0.5259678142725522 0.8816146710473489 O
