System                                  
   1.0000000000000000     
     9.7808205977044338   -2.8440230454874036   -0.1175043932178610
     9.8277044169858812    2.9994257494348360   -0.0391342435528987
     8.8717983602308710    0.1375850323560887    4.9778049757643252
  Rb              Fe              F             
     4     2    12
Direct
     0.2870349251940031    0.2815059300632312    0.2875866717829129
     0.1192768255716406    0.1357322944570158    0.1171678696214312
     0.8807937001213326    0.8640579191069375    0.8829351393608977
     0.7135252100433238    0.7189555717020463    0.7129199780970131
     0.5004172803167429    0.5005030081184725    0.5004205380810696
     0.9997115993111539    0.9995286711443578    0.9997088284518182
     0.1854882119517829    0.1887887006776345    0.7368062632984287
     0.1836835726840245    0.7415250754294456    0.1834255005274932
     0.8460173975685180    0.3747448966587041    0.3905519690235023
     0.8136451839893092    0.8107050132578426    0.2626903891482033
     0.2623269586986283    0.8107181845342314    0.8138672265513328
     0.6115287575010437    0.6259192143982606    0.1531229267523926
     0.6102938435502564    0.1756297593408485    0.6086213671730440
     0.1549706563959715    0.6258965716572790    0.6098811920076230
     0.3903586974498177    0.8252990497957783    0.3920243005146345
     0.3889008690442718    0.3746954372921398    0.8478648227460877
     0.8156367321638134    0.2577081491345090    0.8158429024995349
     0.7370970947332678    0.1887965234909932    0.1852690803845857

  0.00000000E+00  0.00000000E+00  0.00000000E+00
  0.00000000E+00  0.00000000E+00  0.00000000E+00
  0.00000000E+00  0.00000000E+00  0.00000000E+00
  0.00000000E+00  0.00000000E+00  0.00000000E+00
  0.00000000E+00  0.00000000E+00  0.00000000E+00
  0.00000000E+00  0.00000000E+00  0.00000000E+00
  0.00000000E+00  0.00000000E+00  0.00000000E+00
  0.00000000E+00  0.00000000E+00  0.00000000E+00
  0.00000000E+00  0.00000000E+00  0.00000000E+00
  0.00000000E+00  0.00000000E+00  0.00000000E+00
  0.00000000E+00  0.00000000E+00  0.00000000E+00
  0.00000000E+00  0.00000000E+00  0.00000000E+00
  0.00000000E+00  0.00000000E+00  0.00000000E+00
  0.00000000E+00  0.00000000E+00  0.00000000E+00
  0.00000000E+00  0.00000000E+00  0.00000000E+00
  0.00000000E+00  0.00000000E+00  0.00000000E+00
  0.00000000E+00  0.00000000E+00  0.00000000E+00
  0.00000000E+00  0.00000000E+00  0.00000000E+00
