System
1.0
9.73281626701286 -2.94223086784842 -0.0036126565761289
9.732821450281028 2.942246824488218 -0.0036019673243437
8.845209833152943 1.63617681715e-05 5.014579659545427
Rb Fe F 
4 2 12 
direct
0.288321210233503 0.2883215828697487 0.2883249329291938 Rb
0.1248417043294086 0.1248422203802331 0.1248362266748109 Rb
0.8737815619975237 0.8737809553525834 0.8737921263007669 Rb
0.7177936978919303 0.7177930478623087 0.717789181955707 Rb
0.4977248614119042 0.4977258497354042 0.4977280783359796 Fe
0.998878317759886 -0.0011204802587419 0.998876580469558 Fe
0.1884682632078951 0.1884671327464597 0.731699533622448 F
0.1884694771861928 0.7316976116868833 0.1884684807401042 F
0.8366539217056732 0.3926163034120612 0.3926186032195793 F
0.8018984969329043 0.8019005411498582 0.2757538342724715 F
0.2757643656971884 0.8018941705003053 0.801896286844466 F
0.620050640631762 0.6200512637782372 0.149182333620893 F
0.620053433798683 0.149182538435214 0.620049303561933 F
0.1491810946698995 0.6200534649438412 0.6200505358852436 F
0.3926162231390899 0.8366526162208773 0.392619288781944 F
0.3926170040720288 0.3926156453670243 0.8366613247566835 F
0.801895111220005 0.2757643034721848 0.8018953298384917 F
0.7316981304034248 0.1884712026052495 0.1884649842117247 F
