System
1.0
9.897317950528732 -0.0029271268046785 -0.0007080970859342
0.0041209076868966 12.699359464741258 -0.0001603373987241
0.0006672815599464 0.000126383522056 9.369809233586876
Li Fe P O 
1 16 16 64 
direct
0.2316010342042853 0.1252960365231465 0.1748888239424239 Li
0.0070223748307096 0.0046703594350056 0.9856584162079117 Fe
0.0205719734670941 0.5107778209383175 -0.0156702185707637 Fe
0.5050906127407206 0.0028121462496338 0.9865057500285027 Fe
0.5173079334167219 0.5093991842035354 0.9865532285156182 Fe
0.9903680518407895 0.2623116561821825 1.0016400374362355 Fe
0.9746422122206557 0.7594000859793818 0.0229330458907552 Fe
0.494233277819596 0.254567138895386 0.0014649405128238 Fe
0.4814533064320598 0.7639029217048813 0.0088174062259018 Fe
0.2605533113677204 0.9965650116799442 0.5094213794880824 Fe
0.2327785041685246 0.5058419729078724 0.479662631415229 Fe
0.7643060827250107 0.9866648133749398 0.514273736188521 Fe
0.7375090595304349 0.5089485977516001 0.4931050817514657 Fe
0.2613160075992034 0.2574372880253987 0.5213511292297912 Fe
0.2583428017833407 0.7521072192010168 0.5082509327934472 Fe
0.7566831298365967 0.2535416577770188 0.5082803042175819 Fe
0.7498825562586521 0.7471024937223085 0.4969965347478651 Fe
0.2661423616729172 0.1207914149175381 0.8254177469808811 P
0.2738786466634536 0.6208836935672314 0.8197182924372743 P
0.7677147531424448 0.1288700566609799 0.8228732076432465 P
0.7740709029174501 0.6185624254811609 0.8257508739892052 P
0.0175698807700205 0.372419845866585 0.6725496580836132 P
0.0245893657443786 0.8779822858513834 0.6789824468278948 P
0.5194555805858202 0.3717388658714405 0.6765625498694984 P
0.5206915469677647 0.8668799166356711 0.6728629514728975 P
0.4801314164828181 0.1319513226763427 0.3304141101059805 P
0.4771146713321686 0.6209913397583662 0.3199716898820296 P
0.9816557219071513 0.1243637774256428 0.3272279015041972 P
0.9790642326709642 0.6274860361290253 0.3232299987625879 P
0.2332574592757404 0.3692764500957196 0.1749909506462174 P
0.2260961322056672 0.8771258913995514 0.1798582234992659 P
0.7330352525241758 0.3695417653498885 0.177457608648513 P
0.7269584113415956 0.8854933525883151 0.176893577517498 P
0.1146932160997079 0.1239633678862239 0.8848472366078702 O
0.123829327056293 0.6143207959920356 0.8733140965972633 O
0.619579332309799 0.1328748520706214 0.8805009697657965 O
0.6240537981421508 0.616819361883368 0.8826649996660029 O
0.0340892471175153 0.3754071236981641 0.8435780571947976 O
0.0317997688156229 0.8796475837285044 0.8496285474283195 O
0.5335373126925629 0.3727299125640596 0.8472708982104805 O
0.5250981787564083 0.8696350005574377 0.8412553572207756 O
0.280126638798695 0.1267398326154028 0.6545790268338344 O
0.2827967602910475 0.624412875280656 0.6493305892243384 O
0.7815390807190451 0.1243300971344996 0.6529905946898554 O
0.7835161442859759 0.6157079550207546 0.6584766661296289 O
0.3676193365308224 0.3678335930704718 0.6262279747866953 O
0.3677611962639827 0.8739007301178824 0.6109848319171342 O
0.8670203542026492 0.369669351336244 0.6188933779958067 O
0.8745754507821107 0.8809796833588845 0.6244203708268217 O
0.0914634916649364 0.2732465981545483 0.6186878556510119 O
0.0967052156535086 0.7789183055410548 0.6229165828828193 O
0.5949027296993504 0.274361047428159 0.619716546956784 O
0.5839547239076077 0.7660353712823041 0.6179895260648229 O
0.0904466461510808 0.4700715341631818 0.6124987171708737 O
0.0998396519305838 0.9758015085439944 0.6219801490232778 O
0.5872318371447018 0.4710144780354057 0.6163064177149625 O
0.5968934934447977 0.9651197402275845 0.6164999041421709 O
0.4096935679249536 0.0317689465006385 0.3872484817557202 O
0.3991897438316951 0.5235788281421846 0.3738100204073406 O
0.9092070273859727 0.0267327468769451 0.3863372324026114 O
0.9016098051765414 0.5311461346915048 0.3810999196266426 O
0.1584940437467527 0.2682632913734583 0.1211549550204824 O
0.1435678114815082 0.7847394642522857 0.1201755438504565 O
0.6616988013349233 0.2677610190045182 0.1222949173487171 O
0.6474019590275519 0.7923371381635026 0.1132883398341145 O
0.1350014524435639 0.123763776516805 0.366352316208706 O
0.1311550274984035 0.6213947945217783 0.3797364111518898 O
0.6334782923292632 0.1337494293552978 0.3699440556659505 O
0.6265963973368345 0.6153518333327493 0.3764111998431576 O
0.2161526246629491 0.3741078352105492 0.3443637383535153 O
0.2189388133253597 0.8772913425805507 0.3494974089496214 O
0.7201560317751998 0.3738277230410036 0.3466989555805577 O
0.7203490826833798 0.8819207686161171 0.3440600066486433 O
0.4524915605625361 0.1341930680200471 0.1620404989835545 O
0.4709112975462514 0.6258329604549298 0.1493811999617823 O
0.9563955748044176 0.1253008415790842 0.1556412768596924 O
0.9724347237935057 0.624765770373418 0.1508957200292262 O
0.3827442598156502 0.3650197882767854 0.1198336416545725 O
0.3745915104990959 0.869917452870935 0.1225464898303964 O
0.8832566370449143 0.3658216090292211 0.1224761199050651 O
0.8781308666257969 0.8786091709794561 0.1157755623141495 O
0.3394215123482105 0.2183590557489535 0.8862273865998496 O
0.3386868876804504 0.7212992394344951 0.8811368775056708 O
0.843990700227334 0.2271080535545341 0.8776685348986969 O
0.8438831755479824 0.7195632562832674 0.882622888261698 O
0.1603247201767537 0.4655933353506923 0.1122202613334855 O
0.161416338199262 0.981712551486072 0.1240834059017784 O
0.6580605564219626 0.4647515277448648 0.1150832883627583 O
0.6666867425594862 0.9904555154627425 0.1241306023682534 O
0.4061974570794162 0.2276859149025467 0.3936818404405458 O
0.4050886640338053 0.7198496401078925 0.3786998279508653 O
0.9080912483238531 0.2224691388187632 0.3843439130453699 O
0.9154467545596051 0.7297606449293605 0.3728842528079691 O
0.3320033594456984 0.0196759737194592 0.8756866894986958 O
0.3528892751849111 0.5249421272044896 0.8758162220698162 O
0.8411345138896213 0.0311315657788584 0.8837482040281013 O
0.8496754565994818 0.5231517380995122 0.8892842167915213 O
