System                                  
   1.0000000000000000     
    10.3626541995670749    0.6680397148495248    5.8900744478487770
     3.5100475804119782   10.0732086450450389    5.5779958001142633
    -0.2770176937874708    0.4281704396772118   11.5097365705302366
  Li              Mn              O             
     5    32    64
Direct
     0.4286218360545316    0.4292026283202117    0.9485533947748137
     0.4382134451875478    0.9301878152909430    0.4454298464509974
     0.9313551881428846    0.4365830901648892    0.4433076418844596
     0.9352030742673418    0.4359858898103702    0.9353068167391873
     0.9386605948454347    0.9374944912227560    0.9374866709428681
     0.2460574932672585    0.2427937652382207    0.0044475798729408
     0.2398723621321914    0.2385675592065662    0.5080552825846635
     0.2512211397830314    0.7462107827173730    0.0035546949737913
     0.2552300084123950    0.7518039665060872    0.4996346720699443
     0.7457751561463325    0.2510792423448263    0.0012339480846647
     0.7451701551349762    0.2527785670630925    0.4997097917478878
     0.7536037707157538    0.7531183581758837    0.9957628054538710
     0.7594349982645089    0.7587012030645860    0.4963180268435304
     0.2488612373227774    0.9976678656763796    0.2511335124279074
     0.2439775868420579    0.9943219051770017    0.7577317947591649
     0.2458431912483282    0.4957522471501831    0.2584768293266133
     0.2501583295916323    0.4976162085781081    0.7480668308189067
     0.7531001072412346    0.0053852511567995    0.2465950485293225
     0.7523762179560686    0.0020474347604985    0.7462157836450277
     0.7507536906777464    0.5042023239681502    0.2467595738463263
     0.7515476270218437    0.5071346061901436    0.7450868709527404
     0.9987768959118767    0.2472605432078822    0.2518157631404916
     0.9955360800360338    0.2438817282873093    0.7538457582799298
     0.0064165530297206    0.7518111483537713    0.2487936435924004
     0.0073482621723514    0.7524014040789719    0.7442170098797460
     0.4949237536614925    0.2468424642731694    0.2560890552411566
     0.4949662067108645    0.2445322193261505    0.7521683944386685
     0.5026118360326429    0.7532034712633077    0.2457630818177301
     0.5053339085676852    0.7552263982381444    0.7487775768410567
     0.2427184049058881    0.2408929194767730    0.2599943954027523
     0.2444577709985903    0.2404588688842478    0.7571069562092786
     0.2536042578645122    0.7517163147862521    0.2465480589587111
     0.2517554791956652    0.7461166768284441    0.7525050267641969
     0.7500284575195750    0.2550995832766932    0.2433412469227945
     0.7415285162256058    0.2497041609360252    0.7538036355251371
     0.7538565980577387    0.7526254999765214    0.2472749209703772
     0.7595742922127826    0.7588091615419538    0.7363127152098763
     0.1316283573722464    0.1294873080456170    0.3544745267384207
     0.1303363898206395    0.1287105873684700    0.8568108367376780
     0.1395020777192792    0.6429294772789896    0.3499050533197282
     0.1396556325681682    0.6375142229205805    0.8473146294984958
     0.6445752409049740    0.1384038960843757    0.3460534343765414
     0.6360990901453151    0.1330389999146376    0.8503386197819504
     0.6425973656414941    0.6382244988849746    0.3464454956206884
     0.6506317534017316    0.6468285315406109    0.8401396448517581
     0.1240055485595974    0.3441841598300887    0.1381225776480140
     0.1191707755679073    0.3415313185382297    0.6424657562418697
     0.1278342183352467    0.8517001406307575    0.1346174466428808
     0.1294287529199635    0.8517298470232816    0.6339744958119778
     0.6417668538305404    0.3576167249763489    0.1211294019068847
     0.6185509208522716    0.3489889008790362    0.6388802379984049
     0.6317413361404497    0.8516406899135592    0.1314904265935517
     0.6499742133137886    0.8656741637563216    0.6160268071155462
     0.3462383703078588    0.1234944336968601    0.1421631555771949
     0.3428351989775463    0.1178695036705076    0.6454457515695111
     0.3556692599595452    0.6406800769778442    0.1291823701115604
     0.3578364343551680    0.6425389473408182    0.6285521308146849
     0.8519452821391220    0.1292429798850679    0.1350478604315817
     0.8457142729043764    0.1321494443600742    0.6360751779578377
     0.8522091177957071    0.6289080139625438    0.1366409367129674
     0.8661339612926893    0.6483546927575834    0.6190728968765606
     0.1314809388693121    0.1336885437098332    0.1307808572413125
     0.1251517254462241    0.1290892987002026    0.6372341203835361
     0.1345097793554910    0.6389122982984329    0.1306675371698859
     0.1391777931568495    0.6442380105446512    0.6204467339831128
     0.6387075509201146    0.1385300422759941    0.1250852214204638
     0.6350230427583342    0.1383957317194867    0.6238886542536843
     0.6389935898784562    0.6424251305818698    0.1213722541173920
     0.6456475105025824    0.6503985588732921    0.6159578241611340
     0.3538747797631193    0.3545281425506722    0.1575504779581208
     0.3561746407841416    0.3526977133880475    0.6561048483959541
     0.3648958280141658    0.8677272270790828    0.1479232920911094
     0.3595050867036302    0.8651978003586941    0.6522474215779187
     0.8653566424968799    0.3699714502139465    0.1439558463026024
     0.8579134526201243    0.3607084860104199    0.6503594251146270
     0.8657223013034113    0.8674834196554496    0.1446165593941536
     0.8698769734480065    0.8723247797405458    0.6450868367677813
     0.3520899463487153    0.1309402779470589    0.3843221988549114
     0.3707066844952907    0.1436384021520642    0.8690700858338793
     0.3793144192735942    0.6540314586997177    0.3613928705006420
     0.3597740456005517    0.6378826454862982    0.8789340225382577
     0.8698249216494492    0.1552054212860595    0.3644489609506845
     0.8683383771763316    0.1443715552977708    0.8675034789732953
     0.8781506465788691    0.6497307429076904    0.3623749330295530
     0.8807080748497368    0.6502020758732538    0.8621638543778004
     0.1325977257073134    0.3518365122376663    0.3805596659117588
     0.1382367344861823    0.3520414846407700    0.8778974683215144
     0.1542084828962271    0.8733997668829180    0.3611687898271685
     0.1432094884670704    0.8701740741307296    0.8674592602955402
     0.6513743819315787    0.3793813259962385    0.3553223143287329
     0.6371304617114820    0.3595123393570167    0.8748785031787831
     0.6509891248683938    0.8784588486976838    0.3576765373405740
     0.6566625946513386    0.8764725478833419    0.8576030253173432
     0.3513853450124290    0.3481851569388547    0.3886167650732136
     0.3620473020946476    0.3549696125471289    0.8783234930935145
     0.3704094636744039    0.8656533858761686    0.3702233966374140
     0.3572513301270421    0.8613575773900441    0.8784820255780028
     0.8638583667282064    0.3657817800742678    0.3732049972572440
     0.8652619717386907    0.3595200185454976    0.8734283803521791
     0.8711646164820490    0.8689592977038419    0.3639805654068857
     0.8689611561827731    0.8660279314964648    0.8713977961478999

  0.00000000E+00  0.00000000E+00  0.00000000E+00
  0.00000000E+00  0.00000000E+00  0.00000000E+00
  0.00000000E+00  0.00000000E+00  0.00000000E+00
  0.00000000E+00  0.00000000E+00  0.00000000E+00
  0.00000000E+00  0.00000000E+00  0.00000000E+00
  0.00000000E+00  0.00000000E+00  0.00000000E+00
  0.00000000E+00  0.00000000E+00  0.00000000E+00
  0.00000000E+00  0.00000000E+00  0.00000000E+00
  0.00000000E+00  0.00000000E+00  0.00000000E+00
  0.00000000E+00  0.00000000E+00  0.00000000E+00
  0.00000000E+00  0.00000000E+00  0.00000000E+00
  0.00000000E+00  0.00000000E+00  0.00000000E+00
  0.00000000E+00  0.00000000E+00  0.00000000E+00
  0.00000000E+00  0.00000000E+00  0.00000000E+00
  0.00000000E+00  0.00000000E+00  0.00000000E+00
  0.00000000E+00  0.00000000E+00  0.00000000E+00
  0.00000000E+00  0.00000000E+00  0.00000000E+00
  0.00000000E+00  0.00000000E+00  0.00000000E+00
  0.00000000E+00  0.00000000E+00  0.00000000E+00
  0.00000000E+00  0.00000000E+00  0.00000000E+00
  0.00000000E+00  0.00000000E+00  0.00000000E+00
  0.00000000E+00  0.00000000E+00  0.00000000E+00
  0.00000000E+00  0.00000000E+00  0.00000000E+00
  0.00000000E+00  0.00000000E+00  0.00000000E+00
  0.00000000E+00  0.00000000E+00  0.00000000E+00
  0.00000000E+00  0.00000000E+00  0.00000000E+00
  0.00000000E+00  0.00000000E+00  0.00000000E+00
  0.00000000E+00  0.00000000E+00  0.00000000E+00
  0.00000000E+00  0.00000000E+00  0.00000000E+00
  0.00000000E+00  0.00000000E+00  0.00000000E+00
  0.00000000E+00  0.00000000E+00  0.00000000E+00
  0.00000000E+00  0.00000000E+00  0.00000000E+00
  0.00000000E+00  0.00000000E+00  0.00000000E+00
  0.00000000E+00  0.00000000E+00  0.00000000E+00
  0.00000000E+00  0.00000000E+00  0.00000000E+00
  0.00000000E+00  0.00000000E+00  0.00000000E+00
  0.00000000E+00  0.00000000E+00  0.00000000E+00
  0.00000000E+00  0.00000000E+00  0.00000000E+00
  0.00000000E+00  0.00000000E+00  0.00000000E+00
  0.00000000E+00  0.00000000E+00  0.00000000E+00
  0.00000000E+00  0.00000000E+00  0.00000000E+00
  0.00000000E+00  0.00000000E+00  0.00000000E+00
  0.00000000E+00  0.00000000E+00  0.00000000E+00
  0.00000000E+00  0.00000000E+00  0.00000000E+00
  0.00000000E+00  0.00000000E+00  0.00000000E+00
  0.00000000E+00  0.00000000E+00  0.00000000E+00
  0.00000000E+00  0.00000000E+00  0.00000000E+00
  0.00000000E+00  0.00000000E+00  0.00000000E+00
  0.00000000E+00  0.00000000E+00  0.00000000E+00
  0.00000000E+00  0.00000000E+00  0.00000000E+00
  0.00000000E+00  0.00000000E+00  0.00000000E+00
  0.00000000E+00  0.00000000E+00  0.00000000E+00
  0.00000000E+00  0.00000000E+00  0.00000000E+00
  0.00000000E+00  0.00000000E+00  0.00000000E+00
  0.00000000E+00  0.00000000E+00  0.00000000E+00
  0.00000000E+00  0.00000000E+00  0.00000000E+00
  0.00000000E+00  0.00000000E+00  0.00000000E+00
  0.00000000E+00  0.00000000E+00  0.00000000E+00
  0.00000000E+00  0.00000000E+00  0.00000000E+00
  0.00000000E+00  0.00000000E+00  0.00000000E+00
  0.00000000E+00  0.00000000E+00  0.00000000E+00
  0.00000000E+00  0.00000000E+00  0.00000000E+00
  0.00000000E+00  0.00000000E+00  0.00000000E+00
  0.00000000E+00  0.00000000E+00  0.00000000E+00
  0.00000000E+00  0.00000000E+00  0.00000000E+00
  0.00000000E+00  0.00000000E+00  0.00000000E+00
  0.00000000E+00  0.00000000E+00  0.00000000E+00
  0.00000000E+00  0.00000000E+00  0.00000000E+00
  0.00000000E+00  0.00000000E+00  0.00000000E+00
  0.00000000E+00  0.00000000E+00  0.00000000E+00
  0.00000000E+00  0.00000000E+00  0.00000000E+00
  0.00000000E+00  0.00000000E+00  0.00000000E+00
  0.00000000E+00  0.00000000E+00  0.00000000E+00
  0.00000000E+00  0.00000000E+00  0.00000000E+00
  0.00000000E+00  0.00000000E+00  0.00000000E+00
  0.00000000E+00  0.00000000E+00  0.00000000E+00
  0.00000000E+00  0.00000000E+00  0.00000000E+00
  0.00000000E+00  0.00000000E+00  0.00000000E+00
  0.00000000E+00  0.00000000E+00  0.00000000E+00
  0.00000000E+00  0.00000000E+00  0.00000000E+00
  0.00000000E+00  0.00000000E+00  0.00000000E+00
  0.00000000E+00  0.00000000E+00  0.00000000E+00
  0.00000000E+00  0.00000000E+00  0.00000000E+00
  0.00000000E+00  0.00000000E+00  0.00000000E+00
  0.00000000E+00  0.00000000E+00  0.00000000E+00
  0.00000000E+00  0.00000000E+00  0.00000000E+00
  0.00000000E+00  0.00000000E+00  0.00000000E+00
  0.00000000E+00  0.00000000E+00  0.00000000E+00
  0.00000000E+00  0.00000000E+00  0.00000000E+00
  0.00000000E+00  0.00000000E+00  0.00000000E+00
  0.00000000E+00  0.00000000E+00  0.00000000E+00
  0.00000000E+00  0.00000000E+00  0.00000000E+00
  0.00000000E+00  0.00000000E+00  0.00000000E+00
  0.00000000E+00  0.00000000E+00  0.00000000E+00
  0.00000000E+00  0.00000000E+00  0.00000000E+00
  0.00000000E+00  0.00000000E+00  0.00000000E+00
  0.00000000E+00  0.00000000E+00  0.00000000E+00
  0.00000000E+00  0.00000000E+00  0.00000000E+00
  0.00000000E+00  0.00000000E+00  0.00000000E+00
  0.00000000E+00  0.00000000E+00  0.00000000E+00
  0.00000000E+00  0.00000000E+00  0.00000000E+00
