System                                  
   1.0000000000000000     
    10.2852317212148616   -0.0002002927936414   -5.4002187051931321
    -2.8351896634306994    9.8867470578824275   -5.4002254834420542
     0.0099513128610022    0.0132069081834311   12.5149077806612770
  Mn              O             
    32    64
Direct
     0.0060546026341855    0.0075399909841180    0.2626838547094498
    -0.0005514958959281   -0.0043570066322438    0.7483070297941762
     0.9978974807438836    0.4994487233671606    0.2440993259617835
     0.0254486230752114    0.5245683565991455    0.7949228633100721
     0.5012787069415893    1.0014740870361039    0.2515543789686634
     0.4984153333708383   -0.0055756550089973    0.7454155316127929
     0.4928946461580249    0.4943517989719011    0.2328017429365469
     0.5049292458859588    0.5038401517209693    0.7524838514728167
     0.9992605540154585    0.2469126715313967    0.9975897931483970
     0.9969305764173837    0.2549409993192902    0.4998127007391032
     0.0144602174207063    0.7662076686974201    0.0288201829570474
     0.9944753342063303    0.7452337286915091    0.4912822311215397
     0.4947793249733722    0.2437965829170718    0.9889991752652083
     0.5032419955655058    0.2548296562860917    0.5000926289212186
     0.5001843032011288    0.7498069863770838    1.0002035186454805
     0.4977622609234433    0.7452496784611577    0.4916592077093594
     0.2569436303638111    0.0073886466917532    0.2628045331168331
     0.2475721593915668   -0.0055691859961886    0.7452389470202336
     0.2472054999047903    0.4994076668969381    0.2443447845078278
     0.2477347157094344    0.5040031909419519    0.7524683285174657
     0.7504517690246615    1.0015136834985390    0.2514986394743457
     0.7496471451827134   -0.0042657865482778    0.7483967670888917
     0.7404724181383789    0.4943479927311100    0.2322738573069386
     0.7696453141125407    0.5240494643877084    0.7944038218105343
     0.0035323571112812    0.0025309139046613    0.0063871274701953
    -0.0010749384636958    0.0019374240208136    0.5015417293389043
     0.0073779577089205    0.5043783358289665    0.0140813638280608
     0.9794999739613570    0.4800490149194898    0.4645628968355473
     0.4991813787388583    0.9978095112159844   -0.0019430247427029
     0.5031144275990801    0.0017995000015097    0.5016395224653952
     0.4937658255207993    0.4943427095770810    0.9873623738401266
     0.4862016971803340    0.4805003651781474    0.4656661286881265
     0.3803354027439217    0.3957869710797359    0.2621892019957143
     0.3896288933077092    0.4041387076050135    0.7792747466925702
     0.3943313167400779    0.9078656112882061    0.2873974106137342
     0.3894321003341302    0.9002740339840902    0.7782941903722147
     0.8822550110997709    0.3956429591253542    0.2613393201531197
     0.9049863509307984    0.4197163707192383    0.8094008783378751
     0.8932973227329197    0.9080052869596209    0.2872776462733667
     0.8925984706963789    0.9027471392526266    0.7844299356388704
     0.3772039066944617    0.1113796710378170    0.4736841337891041
     0.3701690726758479    0.1051157899041675    0.9621349070601740
     0.3677420249887193    0.6028025541715564    0.4539699262494983
     0.3730104351669762    0.6072256784776895    0.9675170379136895
     0.8712079873960290    0.1105774963280578    0.4682489150170188
     0.8743135820699580    0.1081086024784642    0.9692780456821177
     0.8617939562367218    0.5975386571462399    0.4478126561494133
     0.8866701704489421    0.6216740010285720    0.9980292922408793
     0.0966754318685366    0.1116359419054535    0.4735634397305031
     0.0958157653544102    0.1080024908551934    0.9692578880348737
     0.0867331278357616    0.6026994070349132    0.4535811482706152
     0.1118015027399963    0.6220681952829523    0.9983531237872075
     0.5973615151693740    0.1104655677193146    0.4683264045924981
     0.5925235159997906    0.1051155158191695    0.9622554126706935
     0.5871073938807104    0.5976378617452023    0.4485475048396185
     0.5946629961322984    0.6072137787644912    0.9675243613948800
     0.1146814946383755    0.1015316211726908    0.2289073950503720
     0.1083380978337757    0.0920274141979560    0.7177894544674502
     0.1118209483707870    0.5983507423047222    0.2226625841229064
     0.1246370954719673    0.6098416422979566    0.7595543199978854
     0.6082166204911870    0.0950818200902398    0.2162825774648590
     0.6101463840959819    0.0920393841089201    0.7179262988973788
     0.6038380644869423    0.5905686398313695    0.2070767526109173
     0.6348838620625582    0.6094392712057904    0.7590769473384784
     0.1083944550342066    0.3730618194067194    0.2159795394963639
     0.1030287760299129    0.3784750669735971    0.7186220652992683
     0.1177919660452535    0.8814063113373446    0.2355439452621695
     0.1059959724454006    0.8666466424654755    0.7123448093779516
     0.6027034942430542    0.3682927550555444    0.2043519758316839
     0.6158211607673088    0.3782419330595681    0.7188611500643945
     0.6102126510843898    0.8749443111961701    0.2201756501440415
     0.6072218026611776    0.8667602708536369    0.7126343783973317
     0.1275012575932438    0.3910839953660353    0.0319620657157363
     0.1237438289196079    0.3980948162885485    0.5345093905068781
     0.1336459276083028    0.8962704934568437    0.0460100655445957
     0.1236929260356369    0.8884329938113245    0.5287186725752653
     0.6219489110816804    0.3849842564334005    0.0197706099703713
     0.6009614421904369    0.3744011363800574    0.4907442141235316
     0.6275727701017432    0.8907781102280904    0.0327464459128120
     0.6294957008565613    0.8895224624505789    0.5317892689560435
     0.3906258517187572    0.1281215267161817    0.2840021796269845
     0.3877155894164511    0.1206171491097558    0.7747500300448418
     0.3860158848022025    0.6235458343504708    0.2707017179805499
     0.3931816057174263    0.6311890331102182    0.7860971125442513
     0.8935223918683601    0.1282305269725661    0.2838541816523272
     0.8911994501203568    0.1238082542073115    0.7815272232759936
     0.8853672995670666    0.6235427084647753    0.2702339162445177
     0.9088447029519936    0.6451698111641605    0.8175710357455516
     0.3984288982826932    0.3850236257274712    0.0202323530417639
     0.4110668400963792    0.3978890634585963    0.5345731090459271
     0.4053416399566838    0.8907926622841688    0.0327124538299006
     0.4057709994415489    0.8882676603334607    0.5289143459875104
     0.9052454320631217    0.3909772890264535    0.0318465545424170
     0.8897223145978987    0.3742804211388831    0.4896378804356139
     0.9126861916069595    0.8964512798979656    0.0459361614271784
     0.9028688973571320    0.8895071723532783    0.5316348712216085

  0.00000000E+00  0.00000000E+00  0.00000000E+00
  0.00000000E+00  0.00000000E+00  0.00000000E+00
  0.00000000E+00  0.00000000E+00  0.00000000E+00
  0.00000000E+00  0.00000000E+00  0.00000000E+00
  0.00000000E+00  0.00000000E+00  0.00000000E+00
  0.00000000E+00  0.00000000E+00  0.00000000E+00
  0.00000000E+00  0.00000000E+00  0.00000000E+00
  0.00000000E+00  0.00000000E+00  0.00000000E+00
  0.00000000E+00  0.00000000E+00  0.00000000E+00
  0.00000000E+00  0.00000000E+00  0.00000000E+00
  0.00000000E+00  0.00000000E+00  0.00000000E+00
  0.00000000E+00  0.00000000E+00  0.00000000E+00
  0.00000000E+00  0.00000000E+00  0.00000000E+00
  0.00000000E+00  0.00000000E+00  0.00000000E+00
  0.00000000E+00  0.00000000E+00  0.00000000E+00
  0.00000000E+00  0.00000000E+00  0.00000000E+00
  0.00000000E+00  0.00000000E+00  0.00000000E+00
  0.00000000E+00  0.00000000E+00  0.00000000E+00
  0.00000000E+00  0.00000000E+00  0.00000000E+00
  0.00000000E+00  0.00000000E+00  0.00000000E+00
  0.00000000E+00  0.00000000E+00  0.00000000E+00
  0.00000000E+00  0.00000000E+00  0.00000000E+00
  0.00000000E+00  0.00000000E+00  0.00000000E+00
  0.00000000E+00  0.00000000E+00  0.00000000E+00
  0.00000000E+00  0.00000000E+00  0.00000000E+00
  0.00000000E+00  0.00000000E+00  0.00000000E+00
  0.00000000E+00  0.00000000E+00  0.00000000E+00
  0.00000000E+00  0.00000000E+00  0.00000000E+00
  0.00000000E+00  0.00000000E+00  0.00000000E+00
  0.00000000E+00  0.00000000E+00  0.00000000E+00
  0.00000000E+00  0.00000000E+00  0.00000000E+00
  0.00000000E+00  0.00000000E+00  0.00000000E+00
  0.00000000E+00  0.00000000E+00  0.00000000E+00
  0.00000000E+00  0.00000000E+00  0.00000000E+00
  0.00000000E+00  0.00000000E+00  0.00000000E+00
  0.00000000E+00  0.00000000E+00  0.00000000E+00
  0.00000000E+00  0.00000000E+00  0.00000000E+00
  0.00000000E+00  0.00000000E+00  0.00000000E+00
  0.00000000E+00  0.00000000E+00  0.00000000E+00
  0.00000000E+00  0.00000000E+00  0.00000000E+00
  0.00000000E+00  0.00000000E+00  0.00000000E+00
  0.00000000E+00  0.00000000E+00  0.00000000E+00
  0.00000000E+00  0.00000000E+00  0.00000000E+00
  0.00000000E+00  0.00000000E+00  0.00000000E+00
  0.00000000E+00  0.00000000E+00  0.00000000E+00
  0.00000000E+00  0.00000000E+00  0.00000000E+00
  0.00000000E+00  0.00000000E+00  0.00000000E+00
  0.00000000E+00  0.00000000E+00  0.00000000E+00
  0.00000000E+00  0.00000000E+00  0.00000000E+00
  0.00000000E+00  0.00000000E+00  0.00000000E+00
  0.00000000E+00  0.00000000E+00  0.00000000E+00
  0.00000000E+00  0.00000000E+00  0.00000000E+00
  0.00000000E+00  0.00000000E+00  0.00000000E+00
  0.00000000E+00  0.00000000E+00  0.00000000E+00
  0.00000000E+00  0.00000000E+00  0.00000000E+00
  0.00000000E+00  0.00000000E+00  0.00000000E+00
  0.00000000E+00  0.00000000E+00  0.00000000E+00
  0.00000000E+00  0.00000000E+00  0.00000000E+00
  0.00000000E+00  0.00000000E+00  0.00000000E+00
  0.00000000E+00  0.00000000E+00  0.00000000E+00
  0.00000000E+00  0.00000000E+00  0.00000000E+00
  0.00000000E+00  0.00000000E+00  0.00000000E+00
  0.00000000E+00  0.00000000E+00  0.00000000E+00
  0.00000000E+00  0.00000000E+00  0.00000000E+00
  0.00000000E+00  0.00000000E+00  0.00000000E+00
  0.00000000E+00  0.00000000E+00  0.00000000E+00
  0.00000000E+00  0.00000000E+00  0.00000000E+00
  0.00000000E+00  0.00000000E+00  0.00000000E+00
  0.00000000E+00  0.00000000E+00  0.00000000E+00
  0.00000000E+00  0.00000000E+00  0.00000000E+00
  0.00000000E+00  0.00000000E+00  0.00000000E+00
  0.00000000E+00  0.00000000E+00  0.00000000E+00
  0.00000000E+00  0.00000000E+00  0.00000000E+00
  0.00000000E+00  0.00000000E+00  0.00000000E+00
  0.00000000E+00  0.00000000E+00  0.00000000E+00
  0.00000000E+00  0.00000000E+00  0.00000000E+00
  0.00000000E+00  0.00000000E+00  0.00000000E+00
  0.00000000E+00  0.00000000E+00  0.00000000E+00
  0.00000000E+00  0.00000000E+00  0.00000000E+00
  0.00000000E+00  0.00000000E+00  0.00000000E+00
  0.00000000E+00  0.00000000E+00  0.00000000E+00
  0.00000000E+00  0.00000000E+00  0.00000000E+00
  0.00000000E+00  0.00000000E+00  0.00000000E+00
  0.00000000E+00  0.00000000E+00  0.00000000E+00
  0.00000000E+00  0.00000000E+00  0.00000000E+00
  0.00000000E+00  0.00000000E+00  0.00000000E+00
  0.00000000E+00  0.00000000E+00  0.00000000E+00
  0.00000000E+00  0.00000000E+00  0.00000000E+00
  0.00000000E+00  0.00000000E+00  0.00000000E+00
  0.00000000E+00  0.00000000E+00  0.00000000E+00
  0.00000000E+00  0.00000000E+00  0.00000000E+00
  0.00000000E+00  0.00000000E+00  0.00000000E+00
  0.00000000E+00  0.00000000E+00  0.00000000E+00
  0.00000000E+00  0.00000000E+00  0.00000000E+00
  0.00000000E+00  0.00000000E+00  0.00000000E+00
  0.00000000E+00  0.00000000E+00  0.00000000E+00
