System                                  
   1.0000000000000000     
     9.9607399999999995    0.0001100000000000   -0.0000600000000000
     0.0000400000000000   12.9470899999999993    0.0015800000000000
     0.0000400000000000   -0.0010200000000000    9.4285399999999999
  Li              Mn              P               O             
     2    16    16    64
Direct
     0.9545966806161962    0.8833733093789764    0.3247085475843829
     0.7831785151304678    0.3701481214674937    0.8285737540461802
     0.5137809446295877    0.2465451695671373    0.9855727033594006
     0.4810905359519695    0.7507249635860020    0.0176195530767816
     0.0212567962615844    0.2489760953721909    0.9889320670456594
     0.9837313723974743    0.7527074580895508    0.0158293545001778
     0.2385544168717529    0.2425343632414376    0.4708340050680105
     0.2488241653422233    0.7433856472799035    0.5250884835501218
     0.7482660626914613    0.2468014320654137    0.4844366034163498
     0.7423858722339810    0.7515626155116043    0.5130708503831847
     0.0116734762332820    0.0069518218805056    0.9686458998638641
     0.0059124909794926    0.5014400424826450    0.0179632020282269
     0.4937098454458572    0.9974169810533526    0.9961847741392776
     0.5064358941485788    0.5001473813734165    0.0193031469242181
     0.2713580101903300    0.4944481307225369    0.5209890384978342
     0.2355396900322733    0.9976536820829728    0.4930529723658049
     0.7671877967428694    0.5007572215316333    0.5096462674300791
     0.7224650133996582    0.0056186852554906    0.4892935847656485
     0.2392855806078758    0.3843670973710677    0.1780013839488132
     0.2173087757438892    0.8847067888087240    0.1716042306833077
     0.7409583967716816    0.3855794728847292    0.1838040086708845
     0.7176171082386413    0.8746556172148445    0.1707352063406882
     0.0341940627219401    0.3655231735992228    0.6731287959962450
     0.0121853190210718    0.8620665413803782    0.6786709400933659
     0.5328792022103895    0.3734926644924922    0.6634540275884995
     0.5088504676106845    0.8630874365203230    0.6880138550500473
     0.2745262261995321    0.1205739998758480    0.8083607934975093
     0.2707881853817861    0.6074067540985258    0.8434877684683405
     0.7767283163171845    0.1320430265174297    0.8136340070360318
     0.7710682772817922    0.6080422199868301    0.8366783604324614
     0.4685244305003903    0.1175635561203724    0.3143407343015737
     0.4780572547721153    0.6399957269701648    0.3405853135545895
     0.9780793353919297    0.1273120673344303    0.3052648559007916
     0.9845569078623080    0.6411072076293360    0.3387018179797606
     0.0969039014362331    0.2693435764687646    0.6028899713571203
     0.0896718400196252    0.7633720793969928    0.6365255422453809
     0.5933395000335752    0.2760189904996831    0.5912096379295176
     0.5911448625238109    0.7670655088813758    0.6387384455815326
     0.1714179747361247    0.2877002374585380    0.1124303451859473
     0.1418776394116814    0.7867149590181038    0.1186320468435719
     0.6729611727364776    0.2891079608679133    0.1265818502640905
     0.6455816281708664    0.7779172842493222    0.1116602020756787
     0.3459185201255838    0.2188154126182080    0.8532359860889658
     0.3304506662818210    0.7087517109647398    0.9032622339265417
     0.8513109407549927    0.2289323097447774    0.8767595106551163
     0.8412064738804632    0.7055120726761542    0.8960909972406224
     0.3953090567023583    0.2178832609060037    0.3632225195504974
     0.3968168226840046    0.7335771279356758    0.3961731190218263
     0.9000466728878350    0.2207671189680497    0.3664200834926835
     0.9047833109310629    0.7376835622708052    0.3913370948343420
     0.3451464575326109    0.0234607097242142    0.8701991323289249
     0.3546012666443564    0.5145735208549493    0.8965462219014588
     0.8532374027459242    0.0340589182265616    0.8643005249532137
     0.8497057016282651    0.5104030132581260    0.8897609409339464
     0.3946088647731915    0.0234739241644528    0.3807600366903599
     0.4128727719600893    0.5389247110729293    0.3967881487707521
     0.9098923043727574    0.0264833586956226    0.3502345842724602
     0.9177288133060966    0.5425246012471842    0.3975784994471410
     0.3888392312634178    0.3911957127044667    0.1269506563343134
     0.3663080672499420    0.8772816633458016    0.1288198307978279
     0.8899520308164852    0.3947048927431823    0.1255758096508568
     0.8699682753596483    0.8696664121877774    0.1269590844504012
     0.2762481863254267    0.1108920755001795    0.6377998277480917
     0.2846991548448994    0.6114203655619218    0.6755498079482705
     0.7846190582244179    0.1348745027264356    0.6453652512152269
     0.7862583599258453    0.6120559839760277    0.6690795074215462
     0.1250238858842138    0.1211094571353042    0.8662920789176274
     0.1202805492460077    0.5985522647959474    0.8928987107005198
     0.6322225601057890    0.1288385597564838    0.8720038181020610
     0.6229167072451177    0.6014500823929350    0.8900284062107429
     0.1253995188029355    0.1298327056860110    0.3645204927355329
     0.1329821823891032    0.6475487786383312    0.3912917976854632
     0.6153080183387923    0.1219581342457441    0.3691494498109826
     0.6280213121399748    0.6472504388307326    0.3911952472209088
     0.0518918743214673    0.3599492918992687    0.8409418119522737
     0.0202122086229309    0.8694045511629833    0.8480949021996761
     0.5661704572186286    0.3686286751247515    0.8261440316034540
     0.5156671203073543    0.8634311862544962    0.8601213273975075
     0.2274996379288991    0.3777147937618955    0.3474677235161071
     0.1880389765549515    0.8906856477878670    0.3383854598826249
     0.7367403214724072    0.3834706001475361    0.3557358488807429
     0.7086124887181948    0.8782628097166438    0.3362315085064232
     0.1605014189425935    0.4826118686819383    0.1347321975189149
     0.1491567180498699    0.9802188813725500    0.1040613695582986
     0.6617690090588018    0.4838181729640106    0.1382207732474454
     0.6529178312244546    0.9716975194961039    0.1032514118691422
     0.4602473700175430    0.1140255844012252    0.1462793217847163
     0.4635933554942496    0.6366843083332302    0.1722259585082747
     0.9738148287174122    0.1376215127684297    0.1348239796304998
     0.9692977202045047    0.6370602121123130    0.1706385040391969
     0.3824144652960356    0.3794617891862767    0.6229521383771979
     0.3593513171619073    0.8521150132704336    0.6331720898813962
     0.8815122684904796    0.3744710039365846    0.6358690012298412
     0.8638124139007233    0.8574608144419136    0.6229935187752615
     0.1073911228437402    0.4628720529141469    0.6171094988209769
     0.0814163378085028    0.9579844731793017    0.6122404791026214
     0.6059160554667919    0.4701573933452662    0.6031584256312631
     0.5732059942284945    0.9621439591546110    0.6347964093222545

  0.00000000E+00  0.00000000E+00  0.00000000E+00
  0.00000000E+00  0.00000000E+00  0.00000000E+00
  0.00000000E+00  0.00000000E+00  0.00000000E+00
  0.00000000E+00  0.00000000E+00  0.00000000E+00
  0.00000000E+00  0.00000000E+00  0.00000000E+00
  0.00000000E+00  0.00000000E+00  0.00000000E+00
  0.00000000E+00  0.00000000E+00  0.00000000E+00
  0.00000000E+00  0.00000000E+00  0.00000000E+00
  0.00000000E+00  0.00000000E+00  0.00000000E+00
  0.00000000E+00  0.00000000E+00  0.00000000E+00
  0.00000000E+00  0.00000000E+00  0.00000000E+00
  0.00000000E+00  0.00000000E+00  0.00000000E+00
  0.00000000E+00  0.00000000E+00  0.00000000E+00
  0.00000000E+00  0.00000000E+00  0.00000000E+00
  0.00000000E+00  0.00000000E+00  0.00000000E+00
  0.00000000E+00  0.00000000E+00  0.00000000E+00
  0.00000000E+00  0.00000000E+00  0.00000000E+00
  0.00000000E+00  0.00000000E+00  0.00000000E+00
  0.00000000E+00  0.00000000E+00  0.00000000E+00
  0.00000000E+00  0.00000000E+00  0.00000000E+00
  0.00000000E+00  0.00000000E+00  0.00000000E+00
  0.00000000E+00  0.00000000E+00  0.00000000E+00
  0.00000000E+00  0.00000000E+00  0.00000000E+00
  0.00000000E+00  0.00000000E+00  0.00000000E+00
  0.00000000E+00  0.00000000E+00  0.00000000E+00
  0.00000000E+00  0.00000000E+00  0.00000000E+00
  0.00000000E+00  0.00000000E+00  0.00000000E+00
  0.00000000E+00  0.00000000E+00  0.00000000E+00
  0.00000000E+00  0.00000000E+00  0.00000000E+00
  0.00000000E+00  0.00000000E+00  0.00000000E+00
  0.00000000E+00  0.00000000E+00  0.00000000E+00
  0.00000000E+00  0.00000000E+00  0.00000000E+00
  0.00000000E+00  0.00000000E+00  0.00000000E+00
  0.00000000E+00  0.00000000E+00  0.00000000E+00
  0.00000000E+00  0.00000000E+00  0.00000000E+00
  0.00000000E+00  0.00000000E+00  0.00000000E+00
  0.00000000E+00  0.00000000E+00  0.00000000E+00
  0.00000000E+00  0.00000000E+00  0.00000000E+00
  0.00000000E+00  0.00000000E+00  0.00000000E+00
  0.00000000E+00  0.00000000E+00  0.00000000E+00
  0.00000000E+00  0.00000000E+00  0.00000000E+00
  0.00000000E+00  0.00000000E+00  0.00000000E+00
  0.00000000E+00  0.00000000E+00  0.00000000E+00
  0.00000000E+00  0.00000000E+00  0.00000000E+00
  0.00000000E+00  0.00000000E+00  0.00000000E+00
  0.00000000E+00  0.00000000E+00  0.00000000E+00
  0.00000000E+00  0.00000000E+00  0.00000000E+00
  0.00000000E+00  0.00000000E+00  0.00000000E+00
  0.00000000E+00  0.00000000E+00  0.00000000E+00
  0.00000000E+00  0.00000000E+00  0.00000000E+00
  0.00000000E+00  0.00000000E+00  0.00000000E+00
  0.00000000E+00  0.00000000E+00  0.00000000E+00
  0.00000000E+00  0.00000000E+00  0.00000000E+00
  0.00000000E+00  0.00000000E+00  0.00000000E+00
  0.00000000E+00  0.00000000E+00  0.00000000E+00
  0.00000000E+00  0.00000000E+00  0.00000000E+00
  0.00000000E+00  0.00000000E+00  0.00000000E+00
  0.00000000E+00  0.00000000E+00  0.00000000E+00
  0.00000000E+00  0.00000000E+00  0.00000000E+00
  0.00000000E+00  0.00000000E+00  0.00000000E+00
  0.00000000E+00  0.00000000E+00  0.00000000E+00
  0.00000000E+00  0.00000000E+00  0.00000000E+00
  0.00000000E+00  0.00000000E+00  0.00000000E+00
  0.00000000E+00  0.00000000E+00  0.00000000E+00
  0.00000000E+00  0.00000000E+00  0.00000000E+00
  0.00000000E+00  0.00000000E+00  0.00000000E+00
  0.00000000E+00  0.00000000E+00  0.00000000E+00
  0.00000000E+00  0.00000000E+00  0.00000000E+00
  0.00000000E+00  0.00000000E+00  0.00000000E+00
  0.00000000E+00  0.00000000E+00  0.00000000E+00
  0.00000000E+00  0.00000000E+00  0.00000000E+00
  0.00000000E+00  0.00000000E+00  0.00000000E+00
  0.00000000E+00  0.00000000E+00  0.00000000E+00
  0.00000000E+00  0.00000000E+00  0.00000000E+00
  0.00000000E+00  0.00000000E+00  0.00000000E+00
  0.00000000E+00  0.00000000E+00  0.00000000E+00
  0.00000000E+00  0.00000000E+00  0.00000000E+00
  0.00000000E+00  0.00000000E+00  0.00000000E+00
  0.00000000E+00  0.00000000E+00  0.00000000E+00
  0.00000000E+00  0.00000000E+00  0.00000000E+00
  0.00000000E+00  0.00000000E+00  0.00000000E+00
  0.00000000E+00  0.00000000E+00  0.00000000E+00
  0.00000000E+00  0.00000000E+00  0.00000000E+00
  0.00000000E+00  0.00000000E+00  0.00000000E+00
  0.00000000E+00  0.00000000E+00  0.00000000E+00
  0.00000000E+00  0.00000000E+00  0.00000000E+00
  0.00000000E+00  0.00000000E+00  0.00000000E+00
  0.00000000E+00  0.00000000E+00  0.00000000E+00
  0.00000000E+00  0.00000000E+00  0.00000000E+00
  0.00000000E+00  0.00000000E+00  0.00000000E+00
  0.00000000E+00  0.00000000E+00  0.00000000E+00
  0.00000000E+00  0.00000000E+00  0.00000000E+00
  0.00000000E+00  0.00000000E+00  0.00000000E+00
  0.00000000E+00  0.00000000E+00  0.00000000E+00
  0.00000000E+00  0.00000000E+00  0.00000000E+00
  0.00000000E+00  0.00000000E+00  0.00000000E+00
  0.00000000E+00  0.00000000E+00  0.00000000E+00
  0.00000000E+00  0.00000000E+00  0.00000000E+00
