System                                  
   1.0000000000000000     
    10.3626541995670749    0.6680397148495248    5.8900744478487770
     3.5100475804119782   10.0732086450450389    5.5779958001142633
    -0.2770176937874708    0.4281704396772118   11.5097365705302366
  Mn              O             
    32    64
Direct
     0.2493196448631105    0.2495268218391583    0.0005318176954077
     0.2492805195032723    0.2492985826807456    0.5007080898666060
     0.2504526185131784    0.7491179484289431    0.0005118950291501
     0.2509958889884790    0.7488755963477460    0.5002230815245944
     0.7486963804397416    0.2505931179319132    1.0001028088312931
     0.7491026360174329    0.2503116862368044    0.5000814066781448
     0.7506549505237859    0.7500571538052692    0.9997009548094792
     0.7501038536434161    0.7503851496399188    0.4998716098889938
     0.2496992710147305    0.9994063482843182    0.2504393640078769
     0.2496782477405823    0.9992854282546836    0.7507726708740381
     0.2493004054514873    0.4995103084321289    0.2507777150183657
     0.2499994174976130    0.4992299576690852    0.7504243433552678
     0.7495884392311546    0.0004433350956558    0.2499424110582023
     0.7503669403023897   -0.0000452281455422    0.7497114780130251
     0.7500475472229189    0.5002106946057628    0.2498938097963790
     0.7500296307275267    0.5001184604041905    0.7497300351183156
     0.9993253669426759    0.2495970103460345    0.2504165027786417
     0.9992679840110555    0.2494606831952976    0.7505326493200540
     0.0000117273463643    0.7502874724705557    0.2500327612638934
     0.0007372235374271    0.7496401929547331    0.7499290222696509
     0.4990806847201757    0.2498316387292680    0.2504946952412265
     0.4994823508094364    0.2493819997428094    0.7503938133751714
     0.5003976932326366    0.7500009275861208    0.2496242966448209
     0.5003927212234499    0.7498682789995326    0.7503421298446283
     0.2492087672081026    0.2494940602964518    0.2506601002993905
     0.2491559633792405    0.2495566473085830    0.7506463932825936
     0.2504133942064301    0.7491181695225312    0.2504345753087582
     0.2509673358008293    0.7486786679589146    0.7504843218035495
     0.7487887275502442    0.2507565415996864    0.2500514404773534
     0.7490879838474667    0.2503856484072823    0.7500172437741196
     0.7502273370287522    0.7503150012787758    0.2497290335385893
     0.7507665193825589    0.7498449807083485    0.7497292190263459
     0.1381874283931439    0.1347734731812598    0.3501523374197270
     0.1380282002130020    0.1348598696049564    0.8503205889153419
     0.1386287177053304    0.6351155515366993    0.3500905493051084
     0.1393933196003893    0.6345372879210099    0.8499721721342839
     0.6380434086582389    0.1357249172345338    0.3498065364432787
     0.6385722540385792    0.1351634721087809    0.8496591306673756
     0.6391606024766018    0.6357064131130501    0.3493116830449751
     0.6395782585603916    0.6353002716256142    0.8495466295421658
     0.1258101319278127    0.3486448309344376    0.1359920866050424
     0.1257133137806902    0.3485285628200185    0.6360123259108525
     0.1270758788070234    0.8486188692858719    0.1356283975680506
     0.1278255408501994    0.8480206720559957    0.6355674023251613
     0.6250714019321520    0.3496148845625093    0.1356670984087893
     0.6254409112934565    0.3491740582392773    0.6356578451662077
     0.6269310343882806    0.8492988825322787    0.1349692173696210
     0.6268773627703879    0.8491953951209548    0.6355476892796588
     0.3484710293223142    0.1261561778143068    0.1394100757876169
     0.3484232563805286    0.1260470305048030    0.6396690098485660
     0.3492079645658452    0.6254119195330472    0.1397502357315152
     0.3499092133682348    0.6251169427963308    0.6394565295764397
     0.8480160973992508    0.1274833870244896    0.1388021367006254
     0.8486311780793329    0.1270744070984352    0.6386859734297528
     0.8495221732119690    0.6266170334720366    0.1388497258961471
     0.8495221131957306    0.6265242212452738    0.6385962337835801
     0.1347753299547052    0.1382982744146458    0.1266763960773479
     0.1348533659219701    0.1379440678228858    0.6269529955658102
     0.1352036580120638    0.6386374177481329    0.1265197949369436
     0.1359599646118566    0.6381942225361960    0.6262018734347162
     0.6344793350746287    0.1391075777117652    0.1263143852048810
     0.6351090139869749    0.1385752355468506    0.6262264582430122
     0.6359568505814379    0.6390801958294473    0.1255496851638289
     0.6355522411883264    0.6392646744958571    0.6258950530114703
     0.3601679333744388    0.3642501175651821    0.1510193227493036
     0.3605598245594135    0.3639198879094408    0.6508430445851640
     0.3611621225803591    0.8641731352485780    0.1505003119703905
     0.3614746558570853    0.8639243783366368    0.6509894570668523
     0.8605838969414293    0.3647405733040114    0.1504989120743331
     0.8606757435474859    0.3645020642375084    0.6504281393977664
     0.8612150925440646    0.8650976980749987    0.1502105206681581
     0.8620031388979728    0.8644378756706012    0.6501035563034625
     0.3727970446109671    0.1503510446889964    0.3651664557800054
     0.3726979496206198    0.1503936756800928    0.8651484798909552
     0.3744359737698228    0.6501339341789523    0.3644523810433580
     0.3744191906420037    0.6500143757976243    0.8650937232326129
     0.8722498309986950    0.1511557364416806    0.3647374219433779
     0.8721354251213251    0.1510681755974193    0.8650334260244604
     0.8735495604612644    0.6513024754817778    0.3644522918797980
     0.8741981453708242    0.6507404120081122    0.8644038881921774
     0.1501055329802853    0.3729021982525409    0.3618115380040118
     0.1502430138450067    0.3731737923943549    0.8615273165810556
     0.1513100012723909    0.8722887993597900    0.3617357148718385
     0.1513033494961888    0.8721572859337162    0.8616873160502386
     0.6501131967838886    0.3742681960992381    0.3609885748016644
     0.6500610677137985    0.3742089555317705    0.8607228836814612
     0.6508909797221564    0.8737026147771134    0.3609620546641759
     0.6515919348027250    0.8733121495026310    0.8607591566505560
     0.3637291681099537    0.3605704348487636    0.3747694818022123
     0.3642141441697976    0.3603204393843728    0.8745203698411279
     0.3649682879536482    0.8606447118625606    0.3738869336072727
     0.3646669044473717    0.8606383978670679    0.8745544784362898
     0.8641268201419863    0.3610151707663924    0.3741420273392532
     0.8639681261492055    0.3610576971007536    0.8740603964685627
     0.8645021529306880    0.8617697871676165    0.3736647034240944
     0.8653191165817269    0.8611603158670239    0.8734711584599769

  0.00000000E+00  0.00000000E+00  0.00000000E+00
  0.00000000E+00  0.00000000E+00  0.00000000E+00
  0.00000000E+00  0.00000000E+00  0.00000000E+00
  0.00000000E+00  0.00000000E+00  0.00000000E+00
  0.00000000E+00  0.00000000E+00  0.00000000E+00
  0.00000000E+00  0.00000000E+00  0.00000000E+00
  0.00000000E+00  0.00000000E+00  0.00000000E+00
  0.00000000E+00  0.00000000E+00  0.00000000E+00
  0.00000000E+00  0.00000000E+00  0.00000000E+00
  0.00000000E+00  0.00000000E+00  0.00000000E+00
  0.00000000E+00  0.00000000E+00  0.00000000E+00
  0.00000000E+00  0.00000000E+00  0.00000000E+00
  0.00000000E+00  0.00000000E+00  0.00000000E+00
  0.00000000E+00  0.00000000E+00  0.00000000E+00
  0.00000000E+00  0.00000000E+00  0.00000000E+00
  0.00000000E+00  0.00000000E+00  0.00000000E+00
  0.00000000E+00  0.00000000E+00  0.00000000E+00
  0.00000000E+00  0.00000000E+00  0.00000000E+00
  0.00000000E+00  0.00000000E+00  0.00000000E+00
  0.00000000E+00  0.00000000E+00  0.00000000E+00
  0.00000000E+00  0.00000000E+00  0.00000000E+00
  0.00000000E+00  0.00000000E+00  0.00000000E+00
  0.00000000E+00  0.00000000E+00  0.00000000E+00
  0.00000000E+00  0.00000000E+00  0.00000000E+00
  0.00000000E+00  0.00000000E+00  0.00000000E+00
  0.00000000E+00  0.00000000E+00  0.00000000E+00
  0.00000000E+00  0.00000000E+00  0.00000000E+00
  0.00000000E+00  0.00000000E+00  0.00000000E+00
  0.00000000E+00  0.00000000E+00  0.00000000E+00
  0.00000000E+00  0.00000000E+00  0.00000000E+00
  0.00000000E+00  0.00000000E+00  0.00000000E+00
  0.00000000E+00  0.00000000E+00  0.00000000E+00
  0.00000000E+00  0.00000000E+00  0.00000000E+00
  0.00000000E+00  0.00000000E+00  0.00000000E+00
  0.00000000E+00  0.00000000E+00  0.00000000E+00
  0.00000000E+00  0.00000000E+00  0.00000000E+00
  0.00000000E+00  0.00000000E+00  0.00000000E+00
  0.00000000E+00  0.00000000E+00  0.00000000E+00
  0.00000000E+00  0.00000000E+00  0.00000000E+00
  0.00000000E+00  0.00000000E+00  0.00000000E+00
  0.00000000E+00  0.00000000E+00  0.00000000E+00
  0.00000000E+00  0.00000000E+00  0.00000000E+00
  0.00000000E+00  0.00000000E+00  0.00000000E+00
  0.00000000E+00  0.00000000E+00  0.00000000E+00
  0.00000000E+00  0.00000000E+00  0.00000000E+00
  0.00000000E+00  0.00000000E+00  0.00000000E+00
  0.00000000E+00  0.00000000E+00  0.00000000E+00
  0.00000000E+00  0.00000000E+00  0.00000000E+00
  0.00000000E+00  0.00000000E+00  0.00000000E+00
  0.00000000E+00  0.00000000E+00  0.00000000E+00
  0.00000000E+00  0.00000000E+00  0.00000000E+00
  0.00000000E+00  0.00000000E+00  0.00000000E+00
  0.00000000E+00  0.00000000E+00  0.00000000E+00
  0.00000000E+00  0.00000000E+00  0.00000000E+00
  0.00000000E+00  0.00000000E+00  0.00000000E+00
  0.00000000E+00  0.00000000E+00  0.00000000E+00
  0.00000000E+00  0.00000000E+00  0.00000000E+00
  0.00000000E+00  0.00000000E+00  0.00000000E+00
  0.00000000E+00  0.00000000E+00  0.00000000E+00
  0.00000000E+00  0.00000000E+00  0.00000000E+00
  0.00000000E+00  0.00000000E+00  0.00000000E+00
  0.00000000E+00  0.00000000E+00  0.00000000E+00
  0.00000000E+00  0.00000000E+00  0.00000000E+00
  0.00000000E+00  0.00000000E+00  0.00000000E+00
  0.00000000E+00  0.00000000E+00  0.00000000E+00
  0.00000000E+00  0.00000000E+00  0.00000000E+00
  0.00000000E+00  0.00000000E+00  0.00000000E+00
  0.00000000E+00  0.00000000E+00  0.00000000E+00
  0.00000000E+00  0.00000000E+00  0.00000000E+00
  0.00000000E+00  0.00000000E+00  0.00000000E+00
  0.00000000E+00  0.00000000E+00  0.00000000E+00
  0.00000000E+00  0.00000000E+00  0.00000000E+00
  0.00000000E+00  0.00000000E+00  0.00000000E+00
  0.00000000E+00  0.00000000E+00  0.00000000E+00
  0.00000000E+00  0.00000000E+00  0.00000000E+00
  0.00000000E+00  0.00000000E+00  0.00000000E+00
  0.00000000E+00  0.00000000E+00  0.00000000E+00
  0.00000000E+00  0.00000000E+00  0.00000000E+00
  0.00000000E+00  0.00000000E+00  0.00000000E+00
  0.00000000E+00  0.00000000E+00  0.00000000E+00
  0.00000000E+00  0.00000000E+00  0.00000000E+00
  0.00000000E+00  0.00000000E+00  0.00000000E+00
  0.00000000E+00  0.00000000E+00  0.00000000E+00
  0.00000000E+00  0.00000000E+00  0.00000000E+00
  0.00000000E+00  0.00000000E+00  0.00000000E+00
  0.00000000E+00  0.00000000E+00  0.00000000E+00
  0.00000000E+00  0.00000000E+00  0.00000000E+00
  0.00000000E+00  0.00000000E+00  0.00000000E+00
  0.00000000E+00  0.00000000E+00  0.00000000E+00
  0.00000000E+00  0.00000000E+00  0.00000000E+00
  0.00000000E+00  0.00000000E+00  0.00000000E+00
  0.00000000E+00  0.00000000E+00  0.00000000E+00
  0.00000000E+00  0.00000000E+00  0.00000000E+00
  0.00000000E+00  0.00000000E+00  0.00000000E+00
  0.00000000E+00  0.00000000E+00  0.00000000E+00
  0.00000000E+00  0.00000000E+00  0.00000000E+00
