System                                  
   1.0000000000000000     
     9.4070932832037837    0.0003265287419120    0.0000001837533245
    -4.7032596097464365    8.1478352637407454   -0.0000008452857174
     0.0000000880621579   -0.0000004258461507    4.6614242109140287
  Li              In              Te              Mo            
     1     1     6     6
Direct
    -0.0000181841187863   -0.0000132675478861    0.5000000073808125
     0.6666373999949391    0.3333197295771001   -0.0000000049121910
     0.9503456073933443    0.3613317509509701    0.5000000454804173
     0.6386869658167755    0.5890649034071185    0.4999999584278908
     0.4109992566308989    0.0496782419523980    0.4999999987630335
     0.7211994184257131    0.9704399260542531    0.0000000088421735
     0.0295960911417525    0.7507911901826866    0.0000000530648506
     0.2492644619125445    0.2787998377098913   -0.0000000045453376
     0.2956680650616800    0.4883069037922999    0.4999999469699017
     0.5113584019976020    0.8071162790361897    0.5000000363293572
     0.1929813833579455    0.7045196894924187    0.4999999636786127
     0.3718672632492303    0.8443045966181225    0.0000000552323014
     0.1553900347640228    0.5272728602782860   -0.0000000318578935
     0.4726895010389907    0.6284016918294855   -0.0000000328539291

  0.00000000E+00  0.00000000E+00  0.00000000E+00
  0.00000000E+00  0.00000000E+00  0.00000000E+00
  0.00000000E+00  0.00000000E+00  0.00000000E+00
  0.00000000E+00  0.00000000E+00  0.00000000E+00
  0.00000000E+00  0.00000000E+00  0.00000000E+00
  0.00000000E+00  0.00000000E+00  0.00000000E+00
  0.00000000E+00  0.00000000E+00  0.00000000E+00
  0.00000000E+00  0.00000000E+00  0.00000000E+00
  0.00000000E+00  0.00000000E+00  0.00000000E+00
  0.00000000E+00  0.00000000E+00  0.00000000E+00
  0.00000000E+00  0.00000000E+00  0.00000000E+00
  0.00000000E+00  0.00000000E+00  0.00000000E+00
  0.00000000E+00  0.00000000E+00  0.00000000E+00
  0.00000000E+00  0.00000000E+00  0.00000000E+00
