System
1.0
10.285231721214862 -0.0002002927936414 -5.400218705193132
-2.8351896634306994 9.886747057882427 -5.400225483442054
0.0099513128610022 0.0132069081834311 12.514907780661277
Mg Mn O 
8 32 64 
direct
0.1915031785250605 0.3131199492556225 0.3820239463006367 Mg
0.1955268503718264 0.3204515633720258 0.8882671674515396 Mg
0.1907840931115378 0.8144648464134832 0.3819910329189219 Mg
0.188044465236144 0.8131296265022355 0.8806008688337444 Mg
0.6845571001102237 0.3126907295380748 0.370285534782051 Mg
0.6866500920771077 0.811318474896678 0.8696500227463895 Mg
0.8089416250932266 0.1832969920750538 0.1093654024256243 Mg
0.8121637312432325 0.6888554107928989 0.1288899094205456 Mg
0.9956228120566833 0.9992032461891657 0.2457408559861877 Mn
0.9978455139471535 0.9995476628351674 0.7498374870968242 Mn
0.0022136181894889 0.4971616311382674 0.2502265438403568 Mn
0.0078521041459513 0.5082855443517067 0.76520666840336 Mn
0.4997625360816625 0.9974455214634619 0.2494166797315337 Mn
0.4946720594360555 0.0043116368517137 0.7450167183559521 Mn
0.4908268297844238 0.4955977449022496 0.2393460368745917 Mn
0.5058598749508184 0.5038531299884539 0.7600861093881611 Mn
0.9994793343896902 0.248354349570167 0.998303139797498 Mn
0.998535110930473 0.249732080668973 0.4972417593389736 Mn
0.0078160719141198 0.7500232630060398 0.0126506765449275 Mn
0.995743350040264 0.747305439589778 0.497582321868033 Mn
0.5029651829486237 0.2500415759956227 0.0038250455192939 Mn
0.500310572795191 0.2526718083629498 0.5024838963311863 Mn
0.500908949752872 0.750788255084117 0.0032279307254928 Mn
0.4967499060774562 0.7413715355219596 0.4820723226713319 Mn
0.259470799724994 0.0033580640024967 0.2619914825663647 Mn
0.2577974944162584 0.012432499554617 0.7671429623857573 Mn
0.2536949060003071 0.4968689918805781 0.2482566230444588 Mn
0.260043277169706 0.5098511815802556 0.7716618783637367 Mn
0.7441387885541206 0.9975797207313711 0.2396222132174697 Mn
0.7426883917181019 0.9947022492426786 0.7369599925019465 Mn
0.7452810120624463 0.4934576241242469 0.2381708786622181 Mn
0.7518054954427811 0.50416139456633 0.7552799256965023 Mn
0.9966751440899622 0.9936385906554936 0.9902635177364777 Mn
0.0016498710042968 0.0031249732042037 0.5039944103620473 Mn
0.0074354961292113 0.5080416210208671 0.0155194149711204 Mn
0.9922796199962312 0.4931065825924154 0.4880909706258438 Mn
0.4957455434478084 -0.0053069228516619 -0.0078470850354958 Mn
0.5010756604916634 0.0007820874129669 0.5008787865253012 Mn
0.506648617312649 0.5089553877130726 0.0111348690922532 Mn
0.4940459110620486 0.4901670402816548 0.4819467986573506 Mn
0.3722618788381261 0.3883412927765045 0.2426475925430424 O
0.4018830618247398 0.4141509454179474 0.8048290111810608 O
0.3943608813880182 0.9052815579430674 0.2892429616528148 O
0.3790498708080026 0.9061778790615032 0.7603795194828146 O
0.8729347509258192 0.3822497409520172 0.2410881517074769 O
0.8805759261949334 0.3928745989950512 0.7607155829284874 O
0.8739722321182397 0.888449109764308 0.2467452701578892 O
0.8745658178938327 0.8965002141187137 0.754176396555197 O
0.368320057857731 0.1039940552951856 0.466901838189624 O
0.3801412069501523 0.1171270737110036 0.9809992844585346 O
0.3690677819061925 0.6018449778841141 0.4522651352806245 O
0.3992164228168121 0.6297822953296746 0.0089858181428868 O
0.8854286593779185 0.1245969517611949 0.4961515405567528 O
0.8667867143628817 0.1093130576028744 0.9673769838446661 O
0.8601737022798044 0.5963846076896201 0.4465408961236069 O
0.8911873615519712 0.6304383321513924 0.0089849781514672 O
0.0839428549903095 0.0992320180857038 0.4490892938011624 O
0.0875727731400561 0.1031515763619027 0.9594514244087256 O
0.0859489009329003 0.60296900269356 0.4559638985427409 O
0.1089960317213465 0.6271027559417552 0.0057127648641571 O
0.610387699975951 0.1263646388649248 0.5014171391332873 O
0.6105880449701476 0.1266541047578674 0.9987201314652121 O
0.5882285046921485 0.5967358801839188 0.4444658896318424 O
0.6154730940112874 0.6288034614918605 0.0071804091045519 O
0.1230586785481778 0.1076192167899921 0.2465966472357364 O
0.1259891864628604 0.1177766489560477 0.7565489299250706 O
0.1265025909705352 0.6108689504801625 0.2539155913586625 O
0.1241181188427206 0.6125600937646541 0.7503889714620846 O
0.6214179856555129 0.1111019772280548 0.2441495916787052 O
0.6036807822146485 0.093037641268312 0.7087449415757263 O
0.612806976714677 0.5930946704798801 0.2205012392305262 O
0.6242117516862665 0.6128203206629294 0.7467380096730972 O
0.1244258051504042 0.3840050177928491 0.2488325394986429 O
0.1257127979885682 0.3879342839741926 0.7536406912244805 O
0.1140022799890026 0.8762996588685547 0.2347592223160398 O
0.125087799536231 0.8907855868466865 0.7535902198548372 O
0.6124578035757066 0.3699735302775246 0.2230579028771236 O
0.6122409035654482 0.3805111740887469 0.7228425093776113 O
0.6077315786855713 0.8728992415079332 0.2106805921426714 O
0.6238386605183087 0.8887681068006582 0.7448142764666732 O
0.1299218852704231 0.386685150929468 0.0273194837600302 O
0.1142632791619477 0.3772827799586553 0.5055410963579411 O
0.1299189180024268 0.8854028147122291 0.0292264911617531 O
0.1210286460782542 0.8840076649861877 0.5156295794015866 O
0.625999721693518 0.3883894688330404 0.0309276896651955 O
0.6151680878325252 0.3772669012136492 0.500000090415798 O
0.6123079408517422 0.8751578870667046 0.9977531766479599 O
0.6287092044286825 0.8928698960595252 0.5316791425401634 O
0.3827677367531093 0.1146005802638567 0.270504759893465 O
0.3964296119696371 0.1436116476858433 0.7984891623748154 O
0.3716749130353252 0.6028533296733976 0.243084354164062 O
0.3988447072430336 0.6328297857565879 0.7973124421552562 O
0.8737186663247679 0.1101266881693657 0.2401167610476026 O
0.8738580026638119 0.1130479507970673 0.7495335370920395 O
0.8737933729217069 0.6060531743464589 0.24481985345972 O
0.9043878681247004 0.6429463888983425 0.8091269194660666 O
0.3986854812007543 0.3862741852442779 0.0222245926711548 O
0.3907981289372703 0.3771887536784829 0.5028840107597674 O
0.3892277035351928 0.8742262168567 0.0028418650172267 O
0.3913571543616678 0.8749123349011468 0.4997203507816641 O
0.9144993515313476 0.3936254297369736 0.0432646537487161 O
0.8867703836731532 0.3756733886644153 0.5015441831864459 O
0.8984751192386652 0.8879549141136381 0.024787015430271 O
0.9140491081601969 0.8977807667860683 0.5441320832591361 O
