System                                  
   1.0000000000000000     
     9.9607399999999995    0.0001100000000000   -0.0000600000000000
     0.0000400000000000   12.9470899999999993    0.0015800000000000
     0.0000400000000000   -0.0010200000000000    9.4285399999999999
  Mn              P               O             
    16    16    64
Direct
     0.4539570761809854    0.2311710050923930    0.0114472856249122
     0.4571770232962651    0.7193268895182542    0.0274114379471137
     0.9192370722638072    0.1936833840863382    0.9963149803216589
     0.0261812858569370    0.7726543843251908    0.0662425439889255
     0.2566110841075930    0.2534934750999525    0.5362151791545987
     0.2587878777563278    0.7394955146661470    0.5640914882886329
     0.8073580079619693    0.2391182163272339    0.5639315261475062
     0.6942642068234207    0.7689365545550779    0.4818690070176662
     0.9751476772231009    0.9674098197383399    1.0258711542744139
     0.9707998951073616    0.5037335590091330    1.0031922302856475
     0.4877165527523144    0.9162621357043279    0.9688668771340904
     0.4960919436169760    0.5351515908765344    0.0560451669851912
     0.2326447255929864    0.5383557496577510    0.4833682736995417
     0.1788494754517263    0.0467586256858321    0.4546574908414957
     0.7732606873652264    0.5260016542376320    0.4862664065930087
     0.7870461113169561    0.0215234217767645    0.5594735108110132
     0.3293602052653454    0.4024044517701835    0.1832964226726178
     0.2315543725088395    0.8326122055236216    0.1757859521671188
     0.7721286992152908    0.3387778979691329    0.1754747351071930
     0.6648062045481519    0.8820929683554497    0.1837967091251005
     0.0664335906266570    0.4120056823517407    0.6585945943883105
     0.9206117622642818    0.8295608870831508    0.6222162226188526
     0.5078715918655540    0.3801984374512135    0.6986032855202285
     0.4524752163099264    0.8600238804353000    0.5666395723342398
     0.1739312626561945    0.0884783252323911    0.9746721302930103
     0.2362774418535147    0.6501317692924836    0.8379969881782841
     0.6667078640838006    0.2218321219907994    0.8031698282380942
     0.8005903815577788    0.6507253539313895    0.9119101292122345
     0.6486251345742724    0.2174994789659785    0.3473325919859784
     0.5682788106408740    0.6128230184585808    0.2979903360786102
     0.0852746800426466    0.1592870454838251    0.2363223778565968
     0.0094151139667730    0.5892552155918335    0.3443964714379414
     0.0342594340294417    0.2364882905204194    0.6187059997121674
     0.0905772986632702    0.7521607492675749    0.7382254689838836
     0.5796018777793267    0.2465342397693928    0.5707935709641966
     0.5491806299035614    0.7285384259089092    0.6681696729214602
     0.2176842375978487    0.2541127326611806    0.0143968603019789
     0.2351548972626770    0.6833030888358422    0.0621540407551057
     0.6777562165918138    0.1981582201099309    0.0813696205006987
     0.6813647097039891    0.7164610209821523    0.1277067963372414
     0.3184433813531610    0.2864495205785813    0.8021783018095705
     0.3391498887631246    0.8096896766245217    0.8139818576121296
     0.8908876906582949    0.3262255086349254    0.7764122290627253
     0.9177384364737233    0.7950906269480101    0.8614472578960545
     0.4235351683340464    0.2678821316804604    0.3415001443119458
     0.4512288207315024    0.7533813388539249    0.3785767442240787
     0.8934658380330233    0.2475055171093448    0.3328170224989977
     0.9485442042228740    0.7627887408948323    0.4028860694123459
     0.3314943834481815    0.0307768224288754    0.8394221421197413
     0.2485227180096223    0.4856744523073517    0.9643391440263851
     0.8011338399712555    0.9793486764043616    0.8864714531571444
     0.7728306487014237    0.4721476752155890    0.8923752166976521
     0.4230631797272105    0.9882271195295123    0.3906912477445882
     0.4752288424573069    0.4530549867623747    0.3505636694189151
     0.9663873591009526    0.9726863613500436    0.4029822181399174
     0.0093505488845709    0.4189478643572815    0.4272932866825512
     0.5479055000872467    0.3699681453764362    0.1163855799468097
     0.4379283542904068    0.8802423778238557    0.2082919729881633
     0.9859226562414969    0.3541753605639614    0.1278869453750767
     0.8846960966991437    0.8702263277930279    0.2256756697517328
     0.4319700417950570    0.1190094002309656    0.5540984108242902
     0.3923364757039758    0.6095551336905116    0.6911791080532353
     0.8368754814621200    0.1138202749812240    0.7578629093388677
     0.8186654144031923    0.6663152450674520    0.6659391792127757
     0.0556867532832002    0.1192760930334894    0.7896113393573806
     0.0484415176852863    0.5650096224526818    0.7920391126164448
     0.4559782080369054    0.1686454373395495    0.7721273932214634
     0.5355504320013912    0.5333054149166864    0.8273707639974718
     0.3055966308882194    0.1352956494649002    0.2801198439633922
     0.1979468715259572    0.6908790540654469    0.3340128923800291
     0.8021658624586901    0.0925924587656759    0.3400980277826220
     0.7881127526017281    0.6510100845602984    0.3339412679653919
     0.0939290752106646    0.3687793430504771    0.9014326981108198
     0.1830234198991234    0.9001477039688437    0.9610591156851001
     0.6037967748661427    0.3657885969063882    0.9009019464391419
     0.6396996954707422    0.7719625272514720    0.8728951174945819
     0.1525811128038661    0.3217764309807766    0.2893613504830708
     0.1510212952209188    0.8554950552452877    0.3954561884644758
     0.6820703815391123    0.3806522141983023    0.3803530708471428
     0.6261301387515872    0.9354533661976979    0.4177811419591490
     0.1323217563194745    0.4995683663290091    0.1795176383087999
     0.1662657576843221    0.9985449939863984    0.1704206744261965
     0.7085491221535566    0.5029515242225869    0.1605152705135227
     0.6093895614404786    0.0628563680450679    0.8856445650581399
     0.3839927515597131    0.0697221432774411    0.0875351494570677
     0.3554627401752459    0.5837186850342722    0.2236705891537240
     0.7526574005869844    0.0380679190260957    0.1281663505844300
     0.8968454501460449    0.6346752309214457    0.1360645478001284
     0.2849972368044925    0.4202074684532463    0.6689202562684277
     0.2699485873949870    0.9375314862852822    0.6558112194525935
     0.7311321771785858    0.4207153119490487    0.6661638661130873
     0.7350090607918589    0.8805833780738045    0.7152964158754590
     0.9906681277675983    0.5663235416353644    0.5732166324555598
     0.0539772983704662    0.9752133372778939    0.6507457326756215
     0.5276952546195072    0.5448587832372124    0.5267952580298580
     0.5717694273769499    0.9882097580804358    0.6572793311651473

  0.00000000E+00  0.00000000E+00  0.00000000E+00
  0.00000000E+00  0.00000000E+00  0.00000000E+00
  0.00000000E+00  0.00000000E+00  0.00000000E+00
  0.00000000E+00  0.00000000E+00  0.00000000E+00
  0.00000000E+00  0.00000000E+00  0.00000000E+00
  0.00000000E+00  0.00000000E+00  0.00000000E+00
  0.00000000E+00  0.00000000E+00  0.00000000E+00
  0.00000000E+00  0.00000000E+00  0.00000000E+00
  0.00000000E+00  0.00000000E+00  0.00000000E+00
  0.00000000E+00  0.00000000E+00  0.00000000E+00
  0.00000000E+00  0.00000000E+00  0.00000000E+00
  0.00000000E+00  0.00000000E+00  0.00000000E+00
  0.00000000E+00  0.00000000E+00  0.00000000E+00
  0.00000000E+00  0.00000000E+00  0.00000000E+00
  0.00000000E+00  0.00000000E+00  0.00000000E+00
  0.00000000E+00  0.00000000E+00  0.00000000E+00
  0.00000000E+00  0.00000000E+00  0.00000000E+00
  0.00000000E+00  0.00000000E+00  0.00000000E+00
  0.00000000E+00  0.00000000E+00  0.00000000E+00
  0.00000000E+00  0.00000000E+00  0.00000000E+00
  0.00000000E+00  0.00000000E+00  0.00000000E+00
  0.00000000E+00  0.00000000E+00  0.00000000E+00
  0.00000000E+00  0.00000000E+00  0.00000000E+00
  0.00000000E+00  0.00000000E+00  0.00000000E+00
  0.00000000E+00  0.00000000E+00  0.00000000E+00
  0.00000000E+00  0.00000000E+00  0.00000000E+00
  0.00000000E+00  0.00000000E+00  0.00000000E+00
  0.00000000E+00  0.00000000E+00  0.00000000E+00
  0.00000000E+00  0.00000000E+00  0.00000000E+00
  0.00000000E+00  0.00000000E+00  0.00000000E+00
  0.00000000E+00  0.00000000E+00  0.00000000E+00
  0.00000000E+00  0.00000000E+00  0.00000000E+00
  0.00000000E+00  0.00000000E+00  0.00000000E+00
  0.00000000E+00  0.00000000E+00  0.00000000E+00
  0.00000000E+00  0.00000000E+00  0.00000000E+00
  0.00000000E+00  0.00000000E+00  0.00000000E+00
  0.00000000E+00  0.00000000E+00  0.00000000E+00
  0.00000000E+00  0.00000000E+00  0.00000000E+00
  0.00000000E+00  0.00000000E+00  0.00000000E+00
  0.00000000E+00  0.00000000E+00  0.00000000E+00
  0.00000000E+00  0.00000000E+00  0.00000000E+00
  0.00000000E+00  0.00000000E+00  0.00000000E+00
  0.00000000E+00  0.00000000E+00  0.00000000E+00
  0.00000000E+00  0.00000000E+00  0.00000000E+00
  0.00000000E+00  0.00000000E+00  0.00000000E+00
  0.00000000E+00  0.00000000E+00  0.00000000E+00
  0.00000000E+00  0.00000000E+00  0.00000000E+00
  0.00000000E+00  0.00000000E+00  0.00000000E+00
  0.00000000E+00  0.00000000E+00  0.00000000E+00
  0.00000000E+00  0.00000000E+00  0.00000000E+00
  0.00000000E+00  0.00000000E+00  0.00000000E+00
  0.00000000E+00  0.00000000E+00  0.00000000E+00
  0.00000000E+00  0.00000000E+00  0.00000000E+00
  0.00000000E+00  0.00000000E+00  0.00000000E+00
  0.00000000E+00  0.00000000E+00  0.00000000E+00
  0.00000000E+00  0.00000000E+00  0.00000000E+00
  0.00000000E+00  0.00000000E+00  0.00000000E+00
  0.00000000E+00  0.00000000E+00  0.00000000E+00
  0.00000000E+00  0.00000000E+00  0.00000000E+00
  0.00000000E+00  0.00000000E+00  0.00000000E+00
  0.00000000E+00  0.00000000E+00  0.00000000E+00
  0.00000000E+00  0.00000000E+00  0.00000000E+00
  0.00000000E+00  0.00000000E+00  0.00000000E+00
  0.00000000E+00  0.00000000E+00  0.00000000E+00
  0.00000000E+00  0.00000000E+00  0.00000000E+00
  0.00000000E+00  0.00000000E+00  0.00000000E+00
  0.00000000E+00  0.00000000E+00  0.00000000E+00
  0.00000000E+00  0.00000000E+00  0.00000000E+00
  0.00000000E+00  0.00000000E+00  0.00000000E+00
  0.00000000E+00  0.00000000E+00  0.00000000E+00
  0.00000000E+00  0.00000000E+00  0.00000000E+00
  0.00000000E+00  0.00000000E+00  0.00000000E+00
  0.00000000E+00  0.00000000E+00  0.00000000E+00
  0.00000000E+00  0.00000000E+00  0.00000000E+00
  0.00000000E+00  0.00000000E+00  0.00000000E+00
  0.00000000E+00  0.00000000E+00  0.00000000E+00
  0.00000000E+00  0.00000000E+00  0.00000000E+00
  0.00000000E+00  0.00000000E+00  0.00000000E+00
  0.00000000E+00  0.00000000E+00  0.00000000E+00
  0.00000000E+00  0.00000000E+00  0.00000000E+00
  0.00000000E+00  0.00000000E+00  0.00000000E+00
  0.00000000E+00  0.00000000E+00  0.00000000E+00
  0.00000000E+00  0.00000000E+00  0.00000000E+00
  0.00000000E+00  0.00000000E+00  0.00000000E+00
  0.00000000E+00  0.00000000E+00  0.00000000E+00
  0.00000000E+00  0.00000000E+00  0.00000000E+00
  0.00000000E+00  0.00000000E+00  0.00000000E+00
  0.00000000E+00  0.00000000E+00  0.00000000E+00
  0.00000000E+00  0.00000000E+00  0.00000000E+00
  0.00000000E+00  0.00000000E+00  0.00000000E+00
  0.00000000E+00  0.00000000E+00  0.00000000E+00
  0.00000000E+00  0.00000000E+00  0.00000000E+00
  0.00000000E+00  0.00000000E+00  0.00000000E+00
  0.00000000E+00  0.00000000E+00  0.00000000E+00
  0.00000000E+00  0.00000000E+00  0.00000000E+00
  0.00000000E+00  0.00000000E+00  0.00000000E+00
