System                                  
   1.0000000000000000     
     5.4805941694395992    0.0408447788362505    8.3820337367168438
     2.5276159733706041    4.8630953940033326    8.3820403157562016
     0.0668288122142312    0.0409157369039793   10.0146145210633879
  Li              Co              O             
     7     8    16
Direct
     0.2530946346070396    0.2530928952160839    0.2530995616549573
     0.2450824754228199    0.2450795692457528    0.7512884591654229
     0.2450799758014545    0.7512911111715173    0.2450792859193709
     0.2490054096905626    0.7544389306082024    0.7544404852782565
     0.7512923446466707    0.2450790508061201    0.2450790034621921
     0.7544398957685299    0.2490052546746067    0.7544392537349633
     0.7544393436471705    0.7544381600068621    0.2490066595616767
    -0.0012857776527422   -0.0012863468806435   -0.0012866250908977
     0.9996620885611234    0.9996605682244482    0.5003533024785920
     0.9996636449462782    0.5003521002230126    0.9996608238758535
    -0.0009822006068384    0.5006388894058874    0.5006401121795508
     0.5003535092120799    0.9996621725233177    0.9996609261890933
     0.5006395566552286   -0.0009829198928741    0.5006401153257719
     0.5006398617614007    0.5006392667004016   -0.0009823102993437
     0.5008843999293823    0.5008832503172708    0.5008856059957969
     0.1305960775442015    0.1305948700338673    0.1305990701254826
     0.1306910995448725    0.1306907199450819    0.6259577788893644
     0.1306907984603030    0.6259513481899099    0.1306972027795240
     0.1427281537093911    0.6272701378774834    0.6272768610210484
     0.6259518438800575    0.1306904254809427    0.1306970670632875
     0.6272713785711921    0.1427268728558985    0.6272768442104162
     0.6272714702453015    0.6272702331204255    0.1427356511147590
     0.6298190030705884    0.6298185720062673    0.6298248504942570
     0.3698562589763416    0.3698553227258106    0.3698498357873827
     0.3701736868030518    0.3701720562131834    0.8684396843180974
     0.3701716751169092    0.8684485595692708    0.3701669096369132
     0.3617139413179299    0.8715731183578459    0.8715684333716749
     0.8684500343732056    0.3701702381184948    0.3701668953593353
     0.8715738779051230    0.3617132181898349    0.8715684120843711
     0.8715742836590462    0.8715735047017020    0.3617075375951855
     0.8694669403873450    0.8694652611924043    0.8694610949795788

  0.00000000E+00  0.00000000E+00  0.00000000E+00
  0.00000000E+00  0.00000000E+00  0.00000000E+00
  0.00000000E+00  0.00000000E+00  0.00000000E+00
  0.00000000E+00  0.00000000E+00  0.00000000E+00
  0.00000000E+00  0.00000000E+00  0.00000000E+00
  0.00000000E+00  0.00000000E+00  0.00000000E+00
  0.00000000E+00  0.00000000E+00  0.00000000E+00
  0.00000000E+00  0.00000000E+00  0.00000000E+00
  0.00000000E+00  0.00000000E+00  0.00000000E+00
  0.00000000E+00  0.00000000E+00  0.00000000E+00
  0.00000000E+00  0.00000000E+00  0.00000000E+00
  0.00000000E+00  0.00000000E+00  0.00000000E+00
  0.00000000E+00  0.00000000E+00  0.00000000E+00
  0.00000000E+00  0.00000000E+00  0.00000000E+00
  0.00000000E+00  0.00000000E+00  0.00000000E+00
  0.00000000E+00  0.00000000E+00  0.00000000E+00
  0.00000000E+00  0.00000000E+00  0.00000000E+00
  0.00000000E+00  0.00000000E+00  0.00000000E+00
  0.00000000E+00  0.00000000E+00  0.00000000E+00
  0.00000000E+00  0.00000000E+00  0.00000000E+00
  0.00000000E+00  0.00000000E+00  0.00000000E+00
  0.00000000E+00  0.00000000E+00  0.00000000E+00
  0.00000000E+00  0.00000000E+00  0.00000000E+00
  0.00000000E+00  0.00000000E+00  0.00000000E+00
  0.00000000E+00  0.00000000E+00  0.00000000E+00
  0.00000000E+00  0.00000000E+00  0.00000000E+00
  0.00000000E+00  0.00000000E+00  0.00000000E+00
  0.00000000E+00  0.00000000E+00  0.00000000E+00
  0.00000000E+00  0.00000000E+00  0.00000000E+00
  0.00000000E+00  0.00000000E+00  0.00000000E+00
  0.00000000E+00  0.00000000E+00  0.00000000E+00
