System
1.0
5.470838202432078 0.0293513493256973 8.334188694369608
2.5128950263205008 4.859670459448465 8.334192731926654
0.0479436749146709 0.0293662146501017 9.969314087026577
Li Co O 
7 8 16 
direct
0.2499998112160374 0.2499992924050633 0.2500000403180671 Li
0.250000674685367 0.2500007393930442 0.7499991447813897 Li
0.2500003768832998 0.7499977673018414 0.2500014632379194 Li
0.250001176469229 0.7499990525067594 0.749999288623196 Li
0.7499995665053282 0.2499994138853631 0.250000381742999 Li
0.7500008155577633 0.2500006202661061 0.7499995392781423 Li
0.7500012368609139 0.7499980113591784 0.2500001938175651 Li
4.2782866556e-06 2.439340496e-06 4.1029310536e-06 Co
-2.9066876239e-06 -4.4375266221e-06 0.4999962557803144 Co
-2.8494354034e-06 0.4999954149214404 -3.6450315854e-06 Co
3.709507616e-06 0.5000037467571709 0.5000032484678628 Co
0.4999964529098214 -4.0169625364e-06 -3.5444190065e-06 Co
0.5000042058887149 2.5549545239e-06 0.5000039483831719 Co
0.5000035866093547 0.5000036752634123 3.4261151486e-06 Co
0.4999964993788917 0.4999957943166446 0.4999966772780249 Co
0.1301284705575316 0.1301268993457044 0.1301279676137903 O
0.1301259430954743 0.1301219787250155 0.6301237677301925 O
0.130118892840892 0.6301234509117596 0.1301263023657969 O
0.1301311252438498 0.6301246641616871 0.6301291765189561 O
0.6301225604389471 0.130118131678549 0.1301295530746797 O
0.6301247511534411 0.1301300559016624 0.6301294175703485 O
0.6301259216030808 0.6301268733848815 0.1301328677690611 O
0.6301230701911082 0.6301269106991559 0.6301204297449707 O
0.3698725622824601 0.3698667466648838 0.3698749583802675 O
0.3698790685957918 0.369875986478313 0.8698716240637379 O
0.3698805250070671 0.869872525894267 0.3698748275921819 O
0.3698731284085676 0.8698756310280634 0.8698657302744497 O
0.8698740203463243 0.3698777989430962 0.3698754032905789 O
0.8698766705082651 0.3698707062941654 0.8698687654546502 O
0.8698695099745318 0.8698720082008095 0.3698713093909726 O
0.8698768310717341 0.8698759744344781 0.8698761661230282 O
