System
1.0
9.897317950528732 -0.0029271268046785 -0.0007080970859342
0.0041209076868966 12.699359464741258 -0.0001603373987241
0.0006672815599464 0.000126383522056 9.369809233586876
Li Fe P O 
15 16 16 64 
direct
0.2373630624922348 0.1249902838541387 0.1697528165323884 Li
0.2373629546208011 0.624990278290883 0.1697530046391576 Li
0.7373628991446154 0.124990186120601 0.1697527202470297 Li
0.7373627116394427 0.624990190734366 0.1697529023876361 Li
0.4873629040858916 0.37498850383287 0.3302476384997203 Li
0.4873629047855484 0.8749882935477391 0.3302475629382892 Li
0.9873630636946118 0.3749883880158079 0.3302475605152494 Li
0.9873627796556693 0.8749881942705923 0.3302471496558536 Li
0.0126365122776032 0.6250116133021839 0.6697521885345719 Li
0.512636608186594 0.1250117944507654 0.6697522796762477 Li
0.5126367348249946 0.6250117131072181 0.6697520141217846 Li
0.262636451971741 0.3750098033597294 0.8302468813287739 Li
0.262636390249253 0.8750101606966771 0.8302468694440014 Li
0.7626362448763881 0.3750098403684637 0.8302467672717341 Li
0.7626364119683386 0.8750101429794094 0.8302468389524544 Li
0.9999997541747097 0.9999999575679334 0.9999993717759512 Fe
0.9999999742333123 0.4999998977375993 1.78518384e-07 Fe
0.499999837706429 1.740293354e-07 0.9999996674048911 Fe
0.4999999408627608 0.5000000616911786 3.236934304e-07 Fe
0.9999996458750481 0.2499999678219808 0.9999995078971271 Fe
0.9999997357008686 0.7500000438407337 1.194523715e-07 Fe
0.4999997709203334 0.2499999903325076 0.9999996454448198 Fe
0.4999995959662048 0.7499999387598152 9.3557635e-08 Fe
0.2499998911139638 0.9999999853305843 0.4999998698593126 Fe
0.2500000456402798 0.4999999608085764 0.4999995807192868 Fe
0.7499997265940329 6.8512796e-08 0.4999998068652886 Fe
0.7499995454108414 0.5000000785912412 0.4999998380883701 Fe
0.2499998232344618 0.2500001181726407 0.4999998547097089 Fe
0.2499998693737305 0.750000105661079 0.4999995072870018 Fe
0.7499994595001992 0.2500000548438285 0.4999999800911631 Fe
0.7499995128252418 0.7499999924084697 0.4999996872736431 Fe
0.263522144965594 0.1250091950287094 0.8217771752403684 P
0.2635223725026864 0.6250086287002121 0.8217764928993914 P
0.7635224157270207 0.1250093017011301 0.8217770172362466 P
0.7635225776307375 0.6250086901021613 0.8217764883151871 P
0.0135210453156816 0.3750087278441148 0.6782212828582271 P
0.0135211914144812 0.8750088566587065 0.6782211307491433 P
0.5135207136385933 0.3750085700998962 0.6782219473901344 P
0.5135208324287444 0.8750085568428311 0.678221800623979 P
0.4864781178003196 0.1249909883494704 0.3217785275586835 P
0.4864780357961863 0.6249916957153037 0.3217775760643765 P
0.9864780422276435 0.1249904662121354 0.3217755899604344 P
0.9864779076783962 0.6249911875435709 0.3217748591858154 P
0.2364770482957609 0.3749912997621219 0.1782226056902131 P
0.2364772080785473 0.8749916688609692 0.1782233835464904 P
0.7364774114778551 0.3749914676487754 0.1782234597552731 P
0.7364775455310558 0.8749912674281795 0.1782231329940426 P
0.1098351433679554 0.1250127075477353 0.8600800984299733 O
0.1098350766720628 0.6250126070327264 0.8600795423285137 O
0.6098350521189211 0.1250123665533941 0.8600800517613879 O
0.6098350837414662 0.6250122996642528 0.8600795267464262 O
0.0409483285819164 0.3750022423441675 0.8441954496713084 O
0.0409485694219512 0.8750044964580512 0.8441952289288439 O
0.5409486758878307 0.3750036347035831 0.8441952500072301 O
0.5409487717914826 0.8750051031136385 0.8441950938586489 O
0.2909489280504157 0.1250026046068144 0.6558038348840209 O
0.2909492604772952 0.6250026250638406 0.655804128878513 O
0.7909487941467523 0.1250047322186809 0.6558033215973884 O
0.7909497331577895 0.6250044195616611 0.6558040314948237 O
0.3598369415740983 0.375012888645713 0.6399207305276797 O
0.3598368817937763 0.8750127155934905 0.6399206650745736 O
0.8598368920099426 0.3750121530852742 0.6399205307102437 O
0.859836824381929 0.875012254051121 0.6399205742303141 O
0.0797375177596142 0.2740489820904021 0.6182535715216452 O
0.0797375322417418 0.7740490607305283 0.6182537665768595 O
0.5797362251990426 0.2740479464918166 0.6182544308941581 O
0.5797368798393686 0.7740486477369459 0.6182540663081397 O
0.0797419727090189 0.4759675778755705 0.6182695415772782 O
0.0797419568133942 0.9759676040017283 0.6182690878558749 O
0.5797432077175168 0.4759664010145711 0.6182682153740251 O
0.5797430138948094 0.9759667643492179 0.6182680790205843 O
0.4202572937386062 0.0240326716559965 0.3817306235855649 O
0.4202573357837507 0.5240326962699804 0.3817309350173565 O
0.9202563396347824 0.0240335827960853 0.3817307202219198 O
0.9202560873830811 0.5240339201026593 0.3817317383048515 O
0.170257976430925 0.274032042775243 0.1182689528761565 O
0.1702571375366713 0.7740333122323526 0.1182676425083059 O
0.6702570284445726 0.2740327703841213 0.1182679050554334 O
0.670255965705202 0.7740337079218349 0.1182671418098997 O
0.1401628335598033 0.1249874505956402 0.3600796171278365 O
0.1401625983348701 0.62498744391127 0.3600795604057508 O
0.6401629234547791 0.1249881561975187 0.3600796929696954 O
0.6401626367960495 0.6249879820346177 0.3600795312243668 O
0.20905035317778 0.3749976853879541 0.3441958789433367 O
0.2090502186533235 0.8749974538317932 0.3441957001241203 O
0.7090505032871597 0.3749950906012522 0.3441958821855692 O
0.7090505474355128 0.8749955939454169 0.3441953767380919 O
0.4590514395781564 0.1249958922788239 0.1558036133239432 O
0.4590501988097452 0.6249958090658313 0.1558040235907904 O
0.9590526137779747 0.1249944728198548 0.1557998386548149 O
0.9590511877871358 0.6249944342920967 0.1558004850793286 O
0.3901646875293402 0.374987535720802 0.1399200608035883 O
0.390164632862376 0.874987839656263 0.139919982755087 O
0.8901646541869206 0.3749873024682771 0.1399202053730495 O
0.8901646762111181 0.874987917215041 0.1399205292532245 O
0.3297426366808376 0.225967442473181 0.8817318548232135 O
0.3297434972320357 0.7259664508475071 0.8817327103376006 O
0.829741697981231 0.2259681230938942 0.8817309990620915 O
0.8297428854790396 0.7259668193601694 0.8817324383228936 O
0.170261645495764 0.4759536500016668 0.1182534197562038 O
0.1702622554532773 0.9759548438902971 0.118254383761593 O
0.6702616320880346 0.475953890649441 0.1182534726339344 O
0.6702620946317354 0.975954702225119 0.1182539927167141 O
0.4202614281099144 0.2259508553457157 0.381746260597665 O
0.4202614826066162 0.725950686221137 0.3817466465436771 O
0.9202627849110276 0.2259517246141213 0.3817446623882551 O
0.9202622380447602 0.725951096053867 0.3817456749453437 O
0.3297376158613088 0.0240450557418556 0.881745824166735 O
0.3297386064280845 0.5240459561277578 0.8817467275732742 O
0.8297373959585981 0.0240450511292715 0.88174516481447 O
0.829738654764365 0.5240460957418288 0.881746567100461 O
