System                                  
   1.0000000000000000     
     9.8995250993781152   -0.0030077877924886   -0.0006938635451633
     0.0040156466205995   12.6917449255999362   -0.0000987587416290
     0.0006799449514632    0.0001703575057978    9.3577813756283081
  Li              Fe              P               O             
    16    16    16    64
Direct
     0.2370706841333181    0.1249903735648226    0.1698584933204369
     0.2370706935604461    0.6249903551682874    0.1698584834221539
     0.7370707018693835    0.1249903713675916    0.1698584832904959
     0.7370706931402297    0.6249903579639391    0.1698584858662829
     0.4870681429986296    0.3749939796897219    0.3301404597096102
     0.4870681562132977    0.8749939851791882    0.3301404335614023
     0.9870681590030346    0.3749939967825028    0.3301404458968403
     0.9870681516190818    0.8749940205285700    0.3301404564508643
     0.0129312280029891    0.1250060388159627    0.6698592907417855
     0.0129312215505896    0.6250060251704425    0.6698592919666133
     0.5129312051141216    0.1250060408562091    0.6698593055759808
     0.5129312265006392    0.6250060033300545    0.6698592835026568
     0.2629284965015548    0.3750095939921811    0.8301408652522886
     0.2629284934125881    0.8750096069435684    0.8301408725710225
     0.7629284826379374    0.3750096082448081    0.8301408724560833
     0.7629284546752820    0.8750096111478388    0.8301408622286357
     0.9999998063606275    0.0000000131385269    0.9999999588107872
     0.9999997930933331    0.4999999675129842    0.9999999271637452
     0.4999998116176403    0.9999999715721950    0.9999999175211198
     0.4999997880572308    0.4999999542910724    0.9999999143328800
     0.9999998045849779    0.2500000038106823    0.9999999516155984
     0.9999998048052752    0.7500000121234994    0.9999999411402208
     0.4999997915751398    0.2500000159966312    0.9999999301160333
     0.4999998039563000    0.7500000271351482    0.9999999030487478
     0.2499997411611584    0.0000000457129200    0.4999998638837993
     0.2499997920252405    0.4999999880541371    0.4999998846542200
     0.7499998319012521    0.0000000378533385    0.4999998281237641
     0.7499997657208248    0.5000000064043213    0.4999998931876063
     0.2499997740980086    0.2499999801913304    0.4999998685595137
     0.2499997683331711    0.7499999688883495    0.4999998647184606
     0.7499997777663111    0.2499999833253111    0.4999998654494348
     0.7499997692191437    0.7499999725813222    0.4999998731976814
     0.2633298440017510    0.1249993789239731    0.8215251883602238
     0.2633299203594454    0.6249989832407647    0.8215252488826145
     0.7633298767789778    0.1249994063154455    0.8215251940153518
     0.7633299550794754    0.6249989307433318    0.8215252274888408
     0.0133297685506952    0.3750155954830894    0.6784734410330974
     0.0133298636199287    0.8750160201201702    0.6784733625949307
     0.5133295393445843    0.3750160381654475    0.6784736511794639
     0.5133299216228507    0.8750159945053393    0.6784734332232478
     0.4866698705621391    0.1249844407399603    0.3215264459430991
     0.4866697799059803    0.6249839539442208    0.3215265639139950
     0.9866700839970926    0.1249839833626408    0.3215262176939587
     0.9866697166831198    0.6249838795962560    0.3215265635939127
     0.2366697618295647    0.3750006227317357    0.1784746804799410
     0.2366696879731665    0.8750010233541441    0.1784746075115438
     0.7366698205894106    0.3750005706610638    0.1784746968749467
     0.7366696996721109    0.8750010512934771    0.1784746239468339
     0.1098380528807354    0.1250087954640738    0.8605043221445662
     0.1098380276238270    0.6250088236179582    0.8605043245866144
     0.6098380378894452    0.1250087997728818    0.8605043059355971
     0.6098380078960050    0.6250088284071001    0.8605043376596710
     0.0402671747322203    0.3750008711353452    0.8447049779740979
     0.0402671666615913    0.8750008346530083    0.8447050021594572
     0.5402671712480080    0.3750008939407707    0.8447050625075065
     0.5402671223200911    0.8750008697567815    0.8447046534191972
     0.2902672553774179    0.1250035152475888    0.6552962747587739
     0.2902672297163365    0.6250035538404515    0.6552962486723858
     0.7902672167900638    0.1250035360339365    0.6552962689498297
     0.7902672305419524    0.6250035521392776    0.6552962671156186
     0.3598370670173576    0.3750085556980854    0.6394990114281552
     0.3598370539107775    0.8750085241965516    0.6394989074202151
     0.8598371795710664    0.3750085054357132    0.6394989986105594
     0.8598371509059878    0.8750084924225625    0.6394990136578502
     0.0797564509739471    0.2740593912162810    0.6186002680612559
     0.0797565527960985    0.7740592325716015    0.6186001840176357
     0.5797563117878290    0.2740594239090789    0.6186001792979887
     0.5797565419426112    0.7740592997408172    0.6186001161957956
     0.0797503301909436    0.4759487044576495    0.6186146922618548
     0.0797501965277461    0.9759484731479846    0.6186148157600293
     0.5797503141589176    0.4759487215079065    0.6186147233178527
     0.5797502799071240    0.9759486830751728    0.6186146535209880
     0.4202493611909528    0.0240512888002133    0.3813852963620696
     0.4202495107341825    0.5240515490407905    0.3813851445513217
     0.9202493685425595    0.0240512757717299    0.3813852664665313
     0.9202495510519898    0.5240515859537282    0.3813851153477004
     0.1702416274015668    0.2740430534051934    0.1186104175850015
     0.1702415358221994    0.7740428976342529    0.1186103435796506
     0.6702416289847916    0.2740430606858741    0.1186104384279280
     0.6702415379961908    0.7740428807701447    0.1186103491084833
     0.1401626388808309    0.1249914348822671    0.3605008651977796
     0.1401625638597070    0.6249915150179592    0.3605008547056941
     0.6401625097907422    0.1249914807588097    0.3605008785071332
     0.6401625326308472    0.6249915057495211    0.3605008470378859
     0.2097323974467804    0.3749964741671475    0.3447036315276383
     0.2097324057764503    0.8749964403777182    0.3447036577869981
     0.7097324181933286    0.3749964508488299    0.3447036375788336
     0.7097323989655590    0.8749964487265895    0.3447036539200001
     0.4597314542904566    0.1249991212746053    0.1552904092549858
     0.4597314683573284    0.6249991605854346    0.1552903607120071
     0.9597314560084357    0.1249990953875485    0.1552903357898764
     0.9597314691615040    0.6249991661433628    0.1552903683881416
     0.3901616931395497    0.3749911978425375    0.1394956422752266
     0.3901617151925315    0.8749911675016098    0.1394956500726389
     0.8901616660742402    0.3749911971282151    0.1394956573907627
     0.8901617110558965    0.8749911613323427    0.1394956391124378
     0.3297580490602260    0.2259569346542004    0.8813894323193602
     0.3297581201809596    0.7259570921512333    0.8813895062401158
     0.8297580371741323    0.2259569178640459    0.8813894072794503
     0.8297581414002315    0.7259571057364976    0.8813895103051638
     0.1702464616154041    0.4759358838679995    0.1186054201051028
     0.1702465936607909    0.9759356620789178    0.1186055283587485
     0.6702464309559868    0.4759359259537281    0.1186053857862232
     0.6702465942784084    0.9759356691928162    0.1186055282844744
     0.4202432620047737    0.2259405836706578    0.3813997030057517
     0.4202431533268974    0.7259407743421595    0.3813997849867347
     0.9202433970367606    0.2259405543835340    0.3813997925295936
     0.9202431427448012    0.7259407944871721    0.3813997978679271
     0.3297531998103210    0.0240641011102083    0.8813944303581482
     0.3297530768413187    0.5240643022173090    0.8813943322871686
     0.8297532120087106    0.0240640858586549    0.8813944432022114
     0.8297530596576567    0.5240643249469313    0.8813943232485689

  0.00000000E+00  0.00000000E+00  0.00000000E+00
  0.00000000E+00  0.00000000E+00  0.00000000E+00
  0.00000000E+00  0.00000000E+00  0.00000000E+00
  0.00000000E+00  0.00000000E+00  0.00000000E+00
  0.00000000E+00  0.00000000E+00  0.00000000E+00
  0.00000000E+00  0.00000000E+00  0.00000000E+00
  0.00000000E+00  0.00000000E+00  0.00000000E+00
  0.00000000E+00  0.00000000E+00  0.00000000E+00
  0.00000000E+00  0.00000000E+00  0.00000000E+00
  0.00000000E+00  0.00000000E+00  0.00000000E+00
  0.00000000E+00  0.00000000E+00  0.00000000E+00
  0.00000000E+00  0.00000000E+00  0.00000000E+00
  0.00000000E+00  0.00000000E+00  0.00000000E+00
  0.00000000E+00  0.00000000E+00  0.00000000E+00
  0.00000000E+00  0.00000000E+00  0.00000000E+00
  0.00000000E+00  0.00000000E+00  0.00000000E+00
  0.00000000E+00  0.00000000E+00  0.00000000E+00
  0.00000000E+00  0.00000000E+00  0.00000000E+00
  0.00000000E+00  0.00000000E+00  0.00000000E+00
  0.00000000E+00  0.00000000E+00  0.00000000E+00
  0.00000000E+00  0.00000000E+00  0.00000000E+00
  0.00000000E+00  0.00000000E+00  0.00000000E+00
  0.00000000E+00  0.00000000E+00  0.00000000E+00
  0.00000000E+00  0.00000000E+00  0.00000000E+00
  0.00000000E+00  0.00000000E+00  0.00000000E+00
  0.00000000E+00  0.00000000E+00  0.00000000E+00
  0.00000000E+00  0.00000000E+00  0.00000000E+00
  0.00000000E+00  0.00000000E+00  0.00000000E+00
  0.00000000E+00  0.00000000E+00  0.00000000E+00
  0.00000000E+00  0.00000000E+00  0.00000000E+00
  0.00000000E+00  0.00000000E+00  0.00000000E+00
  0.00000000E+00  0.00000000E+00  0.00000000E+00
  0.00000000E+00  0.00000000E+00  0.00000000E+00
  0.00000000E+00  0.00000000E+00  0.00000000E+00
  0.00000000E+00  0.00000000E+00  0.00000000E+00
  0.00000000E+00  0.00000000E+00  0.00000000E+00
  0.00000000E+00  0.00000000E+00  0.00000000E+00
  0.00000000E+00  0.00000000E+00  0.00000000E+00
  0.00000000E+00  0.00000000E+00  0.00000000E+00
  0.00000000E+00  0.00000000E+00  0.00000000E+00
  0.00000000E+00  0.00000000E+00  0.00000000E+00
  0.00000000E+00  0.00000000E+00  0.00000000E+00
  0.00000000E+00  0.00000000E+00  0.00000000E+00
  0.00000000E+00  0.00000000E+00  0.00000000E+00
  0.00000000E+00  0.00000000E+00  0.00000000E+00
  0.00000000E+00  0.00000000E+00  0.00000000E+00
  0.00000000E+00  0.00000000E+00  0.00000000E+00
  0.00000000E+00  0.00000000E+00  0.00000000E+00
  0.00000000E+00  0.00000000E+00  0.00000000E+00
  0.00000000E+00  0.00000000E+00  0.00000000E+00
  0.00000000E+00  0.00000000E+00  0.00000000E+00
  0.00000000E+00  0.00000000E+00  0.00000000E+00
  0.00000000E+00  0.00000000E+00  0.00000000E+00
  0.00000000E+00  0.00000000E+00  0.00000000E+00
  0.00000000E+00  0.00000000E+00  0.00000000E+00
  0.00000000E+00  0.00000000E+00  0.00000000E+00
  0.00000000E+00  0.00000000E+00  0.00000000E+00
  0.00000000E+00  0.00000000E+00  0.00000000E+00
  0.00000000E+00  0.00000000E+00  0.00000000E+00
  0.00000000E+00  0.00000000E+00  0.00000000E+00
  0.00000000E+00  0.00000000E+00  0.00000000E+00
  0.00000000E+00  0.00000000E+00  0.00000000E+00
  0.00000000E+00  0.00000000E+00  0.00000000E+00
  0.00000000E+00  0.00000000E+00  0.00000000E+00
  0.00000000E+00  0.00000000E+00  0.00000000E+00
  0.00000000E+00  0.00000000E+00  0.00000000E+00
  0.00000000E+00  0.00000000E+00  0.00000000E+00
  0.00000000E+00  0.00000000E+00  0.00000000E+00
  0.00000000E+00  0.00000000E+00  0.00000000E+00
  0.00000000E+00  0.00000000E+00  0.00000000E+00
  0.00000000E+00  0.00000000E+00  0.00000000E+00
  0.00000000E+00  0.00000000E+00  0.00000000E+00
  0.00000000E+00  0.00000000E+00  0.00000000E+00
  0.00000000E+00  0.00000000E+00  0.00000000E+00
  0.00000000E+00  0.00000000E+00  0.00000000E+00
  0.00000000E+00  0.00000000E+00  0.00000000E+00
  0.00000000E+00  0.00000000E+00  0.00000000E+00
  0.00000000E+00  0.00000000E+00  0.00000000E+00
  0.00000000E+00  0.00000000E+00  0.00000000E+00
  0.00000000E+00  0.00000000E+00  0.00000000E+00
  0.00000000E+00  0.00000000E+00  0.00000000E+00
  0.00000000E+00  0.00000000E+00  0.00000000E+00
  0.00000000E+00  0.00000000E+00  0.00000000E+00
  0.00000000E+00  0.00000000E+00  0.00000000E+00
  0.00000000E+00  0.00000000E+00  0.00000000E+00
  0.00000000E+00  0.00000000E+00  0.00000000E+00
  0.00000000E+00  0.00000000E+00  0.00000000E+00
  0.00000000E+00  0.00000000E+00  0.00000000E+00
  0.00000000E+00  0.00000000E+00  0.00000000E+00
  0.00000000E+00  0.00000000E+00  0.00000000E+00
  0.00000000E+00  0.00000000E+00  0.00000000E+00
  0.00000000E+00  0.00000000E+00  0.00000000E+00
  0.00000000E+00  0.00000000E+00  0.00000000E+00
  0.00000000E+00  0.00000000E+00  0.00000000E+00
  0.00000000E+00  0.00000000E+00  0.00000000E+00
  0.00000000E+00  0.00000000E+00  0.00000000E+00
  0.00000000E+00  0.00000000E+00  0.00000000E+00
  0.00000000E+00  0.00000000E+00  0.00000000E+00
  0.00000000E+00  0.00000000E+00  0.00000000E+00
  0.00000000E+00  0.00000000E+00  0.00000000E+00
  0.00000000E+00  0.00000000E+00  0.00000000E+00
  0.00000000E+00  0.00000000E+00  0.00000000E+00
  0.00000000E+00  0.00000000E+00  0.00000000E+00
  0.00000000E+00  0.00000000E+00  0.00000000E+00
  0.00000000E+00  0.00000000E+00  0.00000000E+00
  0.00000000E+00  0.00000000E+00  0.00000000E+00
  0.00000000E+00  0.00000000E+00  0.00000000E+00
  0.00000000E+00  0.00000000E+00  0.00000000E+00
  0.00000000E+00  0.00000000E+00  0.00000000E+00
  0.00000000E+00  0.00000000E+00  0.00000000E+00
  0.00000000E+00  0.00000000E+00  0.00000000E+00
  0.00000000E+00  0.00000000E+00  0.00000000E+00
