System                                  
   1.0000000000000000     
     9.6737875804748725   -0.0030664217736990   -0.0000009100538404
    -4.8395583585156539    8.3612326168416384    0.0000006279850138
    -0.0000006362049815    0.0000001324777731    4.6652360591741635
  In              Te              Mo            
     1     6     6
Direct
     0.6667943033628508    0.3333378029298349    0.0000000177500770
     0.9606544275068135    0.3711646072348273    0.4999999452883044
     0.6284560616816179    0.5896230696627119    0.5000001496153267
     0.4105107941733618    0.0393998623447316    0.4999999613722306
     0.7061147623803770    0.9606072273926182    0.0000001223155581
     0.0405934286031488    0.7461407024459162   -0.0000002255018869
     0.2533496176922190    0.2933843235570430    0.0000000763339984
     0.2973234796160120    0.4928081035972759    0.5000000225751462
     0.5069040991563573    0.8045697080786675    0.5000000535602974
     0.1957817585468643    0.7024558315500600    0.4999998812705711
     0.3706541898028083    0.8392018275524668   -0.0000000516067169
     0.1609982243107891    0.5311042688704481   -0.0000000411320395
     0.4685305198334292    0.6295369981167375    0.0000000881591428

  0.00000000E+00  0.00000000E+00  0.00000000E+00
  0.00000000E+00  0.00000000E+00  0.00000000E+00
  0.00000000E+00  0.00000000E+00  0.00000000E+00
  0.00000000E+00  0.00000000E+00  0.00000000E+00
  0.00000000E+00  0.00000000E+00  0.00000000E+00
  0.00000000E+00  0.00000000E+00  0.00000000E+00
  0.00000000E+00  0.00000000E+00  0.00000000E+00
  0.00000000E+00  0.00000000E+00  0.00000000E+00
  0.00000000E+00  0.00000000E+00  0.00000000E+00
  0.00000000E+00  0.00000000E+00  0.00000000E+00
  0.00000000E+00  0.00000000E+00  0.00000000E+00
  0.00000000E+00  0.00000000E+00  0.00000000E+00
  0.00000000E+00  0.00000000E+00  0.00000000E+00
