System
1.0
9.34760857140392 -2.4968077603e-06 6e-16
-4.67380181173001 8.095267915817189 6e-16
-0.0 -0.0 4.613935460983437
In Te Mo 
1 6 6 
direct
0.6666666666666643 0.3333333333333357 0.0 In
-0.04916279832980498 0.361522235405121 0.5 Te
0.6384777641129123 0.5893149660011723 0.5 Te
0.4106850342168855 0.0491627985937137 0.5 Te
0.7213957629487677 -0.0297085353786073 0.0 Te
0.02970853588131937 0.7511052986227039 0.0 Te
0.24889470116990872 0.2786042367559078 0.0 Te
0.2953177308098401 0.4868291311254834 0.5 Mo
0.5131708687598874 0.8084885997908694 0.5 Mo
0.19151140043027304 0.7046822690836476 0.5 Mo
0.3719858740579572 0.8457910899303029 0.0 Mo
0.1542089102080684 0.5261947840197951 0.0 Mo
0.4738052157339745 0.6280141260499014 0.0 Mo
