System                                  
   1.0000000000000000     
     5.1224972792228485   -0.0564541153141896   -2.9517038568787282
    -1.7161447338844853    4.7862768592094946   -3.0169634299472694
     0.0236468403917629   -0.0008724088539424    5.8431909593075124
  Mn              V               O             
     2     2     8
Direct
     0.4999996088712545    0.0000005570822075    0.0000008273384669
     0.4999997582011628    0.4999988094949356    0.4999992433199281
     0.0000014523528125    0.0000008172108379    0.0000013188815190
     0.5000000305780495    0.0000003713826248    0.4999992020445486
     0.2706629341988007    0.7952803700333314    0.0320754178716804
     0.2700457147135764    0.2300022963378898    0.0279625641500499
     0.7020398188929622    0.2420840674487974    0.4720360450328544
     0.2632052783943123    0.2385879796767053    0.4679243143598943
     0.7367951137726245    0.7614121554509520    0.5320757207032647
     0.7299526990478904    0.7699966201576454    0.9720368665855166
     0.2979601167232088    0.7579159469319482    0.5279635607030936
     0.7293374742533458    0.2047200087921245    0.9679249190091843

  0.00000000E+00  0.00000000E+00  0.00000000E+00
  0.00000000E+00  0.00000000E+00  0.00000000E+00
  0.00000000E+00  0.00000000E+00  0.00000000E+00
  0.00000000E+00  0.00000000E+00  0.00000000E+00
  0.00000000E+00  0.00000000E+00  0.00000000E+00
  0.00000000E+00  0.00000000E+00  0.00000000E+00
  0.00000000E+00  0.00000000E+00  0.00000000E+00
  0.00000000E+00  0.00000000E+00  0.00000000E+00
  0.00000000E+00  0.00000000E+00  0.00000000E+00
  0.00000000E+00  0.00000000E+00  0.00000000E+00
  0.00000000E+00  0.00000000E+00  0.00000000E+00
  0.00000000E+00  0.00000000E+00  0.00000000E+00
