System
1.0
4.991994977329439 -0.066125716272855 -2.9045632392802374
-1.6612023636279314 4.691052186400359 -2.9317759407169914
0.038359743730926 0.066125716265101 5.775381372237645
Mn V O 
2 2 8 
direct
0.5 9.588290840958061e-20 3.9433201877854737e-17 Mn
0.5 0.49999999999999994 0.5 Mn
0.0 0.0 0.0 V
0.5 2.3272668147037277e-19 0.5 V
0.26248652623246294 0.7815783639021339 0.019091837669668037 O
0.2693264677420693 0.24285730606424308 0.026469161677832496 O
0.7163881443864151 0.24285730606424807 0.47353083832217135 O
0.262486526232467 0.24339368856279867 0.4809081623303303 O
0.7375134737675333 0.7566063114372014 0.5190918376696696 O
0.7306735322579307 0.7571426939357568 0.9735308383221674 O
0.283611855613585 0.757142693935752 0.5264691616778288 O
0.7375134737675374 0.21842163609786616 0.9809081623303318 O
