System                                  
   1.0000000000000000     
     5.3896235278178839    0.0043133052999750    8.8983513522266264
     2.4812311945729282    4.8454264782052894    8.8987060744145872
    -0.0033452341678574    0.0046787284063974   10.4110035398105367
  Na              Co              O             
     1     8    16
Direct
     0.7515182789146481    0.2523047359025373    0.2463100056140330
     0.9915425228204154    0.9921266467879665    0.9910100925418547
     0.0092892747191550    0.0070480565805951    0.5090305706732461
     0.0094093175644864    0.5071141355162593    0.0077294136482552
     0.9922832442116107    0.4940173874211686    0.4925297380846667
     0.5078959392628296    0.0062952193149833    0.0071122704194669
     0.4907199174733525    0.9922073888931897    0.4919861409731101
     0.4908080089857719    0.4922320437198022    0.9912960397263841
     0.5087281676573880    0.5081823443361944    0.5087169355655161
     0.1409683754273332    0.1392213661608035    0.1450723898110106
     0.1265577505969397    0.1279081782184764    0.6272841101980546
     0.1243542687476276    0.6277447285072285    0.1300424297004025
     0.1426590641690522    0.6427661629921827    0.6425202551669030
     0.6248107690384541    0.1291578004388123    0.1260017702109535
     0.6422933955267818    0.1443160783534277    0.6383149187936185
     0.6433270437864486    0.6394258116446442    0.1428535268292899
     0.6291107150077347    0.6279467274603107    0.6252332458704712
     0.3604725362138575    0.3566747086925881    0.3573025720773205
     0.3747249351000042    0.3681627132689566    0.8748793193537386
     0.3763735597599255    0.8717755673766582    0.3709828890884497
     0.3584321333431021    0.8559976953394319    0.8584793370496692
     0.8747022175462035    0.3714127240081805    0.3723939656122805
     0.8575235972701920    0.3566256869552951    0.8601756261679365
     0.8555317356297683    0.8642355524991064    0.3550869928597324
     0.8700274718958608    0.8751418276684486    0.8728979896510105

  0.00000000E+00  0.00000000E+00  0.00000000E+00
  0.00000000E+00  0.00000000E+00  0.00000000E+00
  0.00000000E+00  0.00000000E+00  0.00000000E+00
  0.00000000E+00  0.00000000E+00  0.00000000E+00
  0.00000000E+00  0.00000000E+00  0.00000000E+00
  0.00000000E+00  0.00000000E+00  0.00000000E+00
  0.00000000E+00  0.00000000E+00  0.00000000E+00
  0.00000000E+00  0.00000000E+00  0.00000000E+00
  0.00000000E+00  0.00000000E+00  0.00000000E+00
  0.00000000E+00  0.00000000E+00  0.00000000E+00
  0.00000000E+00  0.00000000E+00  0.00000000E+00
  0.00000000E+00  0.00000000E+00  0.00000000E+00
  0.00000000E+00  0.00000000E+00  0.00000000E+00
  0.00000000E+00  0.00000000E+00  0.00000000E+00
  0.00000000E+00  0.00000000E+00  0.00000000E+00
  0.00000000E+00  0.00000000E+00  0.00000000E+00
  0.00000000E+00  0.00000000E+00  0.00000000E+00
  0.00000000E+00  0.00000000E+00  0.00000000E+00
  0.00000000E+00  0.00000000E+00  0.00000000E+00
  0.00000000E+00  0.00000000E+00  0.00000000E+00
  0.00000000E+00  0.00000000E+00  0.00000000E+00
  0.00000000E+00  0.00000000E+00  0.00000000E+00
  0.00000000E+00  0.00000000E+00  0.00000000E+00
  0.00000000E+00  0.00000000E+00  0.00000000E+00
  0.00000000E+00  0.00000000E+00  0.00000000E+00
