System
1.0
5.443119928693442 0.0410099848458994 9.001319014585285
2.5099106719979165 4.87967893231521 9.02023035436794
0.0050245970656154 0.0476904065515592 10.526925784581698
Na Co O 
1 8 16 
direct
0.7475978158846832 0.2451713480812065 0.2567761218508678 Na
0.9930813128240811 -0.0057866115726017 0.9909322367093596 Co
1.0086195485728924 0.0058525177035305 0.5064282437500703 Co
1.0073989349832886 0.506281542547818 1.0030534043947645 Co
0.9940596489858444 0.4936522947712163 0.4944496579835548 Co
0.5071761455924317 1.0058316350236165 1.0044426569463212 Co
0.4924314684870524 -0.0048428833353491 0.4943734767801876 Co
0.4915378696645099 0.4925258260335386 0.9964028172391403 Co
0.5070277132577399 0.5073401111773332 0.506318195715192 Co
0.1393521665464841 0.140246361704455 0.1380908149192471 O
0.1269048262169762 0.1303390625354403 0.631341845440129 O
0.1304098242360844 0.6288910336347333 0.1289035084919804 O
0.1411879502037005 0.6430742618079572 0.6366386138243079 O
0.6253420452009449 0.1340581668264974 0.128794068760294 O
0.6406494545701952 0.1422270649517156 0.6387548519411415 O
0.639291687759055 0.6402114475200484 0.1379590151356375 O
0.6337594658209894 0.6371976415642078 0.6248020855928741 O
0.3614525739552317 0.3600232284655396 0.3609683745593087 O
0.3689378005513524 0.3678306465102097 0.8739712210561733 O
0.3747371900840636 0.8705972522708203 0.3650416562912825 O
0.3584115148710031 0.855760086043389 0.8654767173916963 O
0.871420493879976 0.368128538042496 0.3682101867500653 O
0.8575761299824148 0.3565302057058647 0.8656833912028731 O
0.8645998214911864 0.8635698369075404 0.3530848330884142 O
0.8711008370467609 0.8653306731360308 0.874344549872491 O
