System                                  
   1.0000000000000000     
    11.4009387477082118   -0.1270461853059910   -0.2333408100202317
    -5.7172201767325017    9.9979219821615430    0.0770862630575056
     0.0362140596339119    0.0921245990614989    9.2636120848112711
  Li              Mn              Co              Ni              O             
    14    12     8    12    64
Direct
     0.1708945872516663    0.3362029950262112    0.8986929800256686
     0.1671240088901528    0.8364670499918604    0.8981839019080072
     0.6742421993351270    0.3402578283447330    0.8965595606034238
     0.6634043822643323    0.8327194062854706    0.8955552081307361
     0.4967040095857348    0.9976797728490787    0.9905310648083603
    -0.0007775563958845    0.9992685318671615   -0.0090610625272292
     0.4996748143780039    0.5049335847914852    0.4936739869141094
     0.4969548239660407    0.9904774980942299    0.4927196137501441
     0.9939636292448719    0.4983597725612562    0.4945860227690035
     0.9979379824521623    0.9932085195780666    0.4929840790164675
     0.3313736861359163    0.1661157151679986    0.3984624922718447
     0.3259398327952401    0.6619196302743827    0.4053443580879391
     0.8311822224658089    0.1623493573972337    0.4002829226905791
     0.8283519683631888    0.6627259753202395    0.4048062420190700
     0.0870030904940733    0.4186118313955978    0.2095612954002743
     0.0889451588504098    0.9170726489016194    0.2122606614669813
     0.5844303770195711    0.4152618600953466    0.2059374730510030
     0.5856142690109127    0.9127898187523312    0.2116581810370881
     0.0885246541192533    0.1727901211200558    0.2108462667829276
     0.0851301676060670    0.6705129456402804    0.2079185200484538
     0.5875756050493253    0.1708378379236582    0.2096726923479503
     0.5833444129257597    0.6681696871730496    0.2068524053298278
     0.1749923420238418    0.0855180769408680    0.7076162611754178
     0.1600305568927347    0.5788162672130932    0.7278961672717948
     0.6725907894959201    0.0800644645874613    0.7102938159740064
     0.6669693731453060    0.5870688080228219    0.7231498665597753
     0.1661999564555627    0.3309314533909239    0.4812458016079423
     0.1684300329092227    0.8329347870672744    0.4857623551528614
     0.6671330107542758    0.3287319189976457    0.4822103597236736
     0.6677995537483523    0.8294984242841379    0.4838379939686700
     0.3463322320720584    0.1775151987757837    0.9808799944212533
     0.3341590183399442    0.6664541421270372    0.9862377680575615
     0.8450373762598130    0.1770634824178423    0.9822583236788872
     0.8417971687886247    0.6733522640989716    0.9853277344568455
     0.4224961784295668    0.0900011662019477    0.7100254499069163
     0.4086594849027734    0.5789909480473393    0.7186459675175590
     0.9221795909235111    0.0885936068832114    0.7101427752056940
     0.9139689675365342    0.5856097468625530    0.7202021683393431
     0.3317168822174055    0.4185188608449695    0.2052057907378550
     0.3316660081771142    0.9149664230731772    0.2122953100306118
     0.8320502164280990    0.4181705448924494    0.2016399379506680
     0.8320558906039115    0.9161379789479709    0.2105151795700254
     0.4165941674680280    0.3349430604076652    0.7160571139718171
     0.4067910796808645    0.8241020171127478    0.7122912436548974
     0.9123352955915053    0.3300943908293998    0.7169628105818996
     0.9115466476079227    0.8302212827244529    0.7137190120383106
     0.1703756440014230    0.0858569140641357    0.0980189018442934
     0.1717213475455885    0.5876998500707370    0.1073023774730515
     0.6696253152583483    0.0844979856655851    0.0985747864745084
     0.6713681050294487    0.5856213108361491    0.1081567527265926
     0.4163365476418194    0.3263007132412552    0.0957372020071729
     0.4216459606751746    0.8325492025308272    0.0934157621337286
     0.9177482286230787    0.3239740389848799    0.0936594334241787
     0.9235910359512317    0.8358794808895645    0.0954324817487055
     0.3420336805644120    0.1762396512030414    0.6084300843639315
     0.3226435777849597    0.6565785033375562    0.6164350467683589
     0.8391805231818582    0.1717746477315645    0.6098440619023981
     0.8302029557438396    0.6655779803678158    0.6144859843407364
     0.2695780073090665    0.0271634340251654    0.8386895556952928
     0.2485552948215881    0.5176619397866492    0.8559923409094981
     0.7664400221148003    0.0254502957620211    0.8432267253856379
     0.7606858133029163    0.5243025571213353    0.8479465642635446
     0.2617653281429443    0.2416025115214110    0.8361931464776803
     0.2478203972217923    0.7300722675871641    0.8551248811189917
     0.7586909602678636    0.2375736381986975    0.8387035205073621
     0.7508930089803738    0.7335168366117740    0.8540946191611209
     0.3361935929809176    0.4160269862255900    0.5974170828644375
     0.3294390803072800    0.9067001031584815    0.5885612810170484
     0.8248364175431064    0.4075095145605571    0.5986110654368315
     0.8342018436398416    0.9112597191995504    0.5917206900983637
     0.2406639078622978    0.2626914006009147    0.3424659279204764
     0.2301067033346434    0.7519368895931918    0.3505825733712383
     0.7351445178319569    0.2548107593149303    0.3478517156444945
     0.7287012531880649    0.7498171624532677    0.3492018034984727
     0.0193758795647280    0.2582792097544358    0.3369396858440274
     0.0198886093106866    0.7606173325548686    0.3413026852847194
     0.5191756430288155    0.2574474693578863    0.3371356022433172
     0.5151917692043835    0.7560443283778319    0.3378078554451735
     0.0856592396481307    0.1619355058055061    0.5925404983192134
     0.0782581110512233    0.6602484005269019    0.6052648606274734
     0.5832805017878404    0.1595884403685811    0.5930172719613025
     0.5877711979079746    0.6696248530751038    0.6008651043461702
     0.0046732113718923    1.0021425499121026    0.8014431222243991
     0.9875010873880482    0.4910568480179668    0.8190051069112038
     0.5011129665563989   -0.0026686208327101    0.8002955384238346
     0.4932636322339532    0.4969086556867001    0.8164327236427878
     0.0112599386301683    0.0068625338835707    0.3055075098834354
     1.0053972990699787    0.5018498317322001    0.3039802352865427
     0.5102727445354295    1.0039568306296598    0.3050216488071634
     0.4977407672240268    0.4971176406278408    0.3023355919268527
     0.1683031003144949    0.3368590248858354    0.1040055099554803
     0.1606821226999323    0.8320448696820502    0.1023228295730508
     0.6582403347911699    0.3303438862045603    0.0994440122955197
     0.6591814921880721    0.8288783420957285    0.1014177094037695
     0.4865039001702002    0.2551227604103614    0.8437155591095388
     0.4732751878408958    0.7401448731312690    0.8453960507315217
     0.9834955244762956    0.2521492238161535    0.8450877580818643
     0.9804091361054831    0.7522068674584885    0.8482535904185076
     0.0754454535578051    0.4164369878754919    0.6078289637011813
     0.0953640129036671    0.9219181589725673    0.5948952185686718
     0.5795844742891538    0.4203907823849149    0.6052273850814360
     0.5938236421233518    0.9180613534010208    0.5955692923204918
     0.2333069285913885    0.4789845484026339    0.3481695238997344
     0.2378981243986529    0.9794961819787640    0.3495060788554999
     0.7312808364279687    0.4758907433243196    0.3493424845756501
     0.7349182609076409    0.9750694517861581    0.3491121036508748
     0.4244146782877942    0.0913385277298609    0.0901293089404856
     0.4166021835921709    0.5885264005210213    0.0942304886765929
     0.9290659308828435    0.0949154753773330    0.0871964379324727
     0.9196306587972878    0.5979465796120637    0.0948697113503067

  0.00000000E+00  0.00000000E+00  0.00000000E+00
  0.00000000E+00  0.00000000E+00  0.00000000E+00
  0.00000000E+00  0.00000000E+00  0.00000000E+00
  0.00000000E+00  0.00000000E+00  0.00000000E+00
  0.00000000E+00  0.00000000E+00  0.00000000E+00
  0.00000000E+00  0.00000000E+00  0.00000000E+00
  0.00000000E+00  0.00000000E+00  0.00000000E+00
  0.00000000E+00  0.00000000E+00  0.00000000E+00
  0.00000000E+00  0.00000000E+00  0.00000000E+00
  0.00000000E+00  0.00000000E+00  0.00000000E+00
  0.00000000E+00  0.00000000E+00  0.00000000E+00
  0.00000000E+00  0.00000000E+00  0.00000000E+00
  0.00000000E+00  0.00000000E+00  0.00000000E+00
  0.00000000E+00  0.00000000E+00  0.00000000E+00
  0.00000000E+00  0.00000000E+00  0.00000000E+00
  0.00000000E+00  0.00000000E+00  0.00000000E+00
  0.00000000E+00  0.00000000E+00  0.00000000E+00
  0.00000000E+00  0.00000000E+00  0.00000000E+00
  0.00000000E+00  0.00000000E+00  0.00000000E+00
  0.00000000E+00  0.00000000E+00  0.00000000E+00
  0.00000000E+00  0.00000000E+00  0.00000000E+00
  0.00000000E+00  0.00000000E+00  0.00000000E+00
  0.00000000E+00  0.00000000E+00  0.00000000E+00
  0.00000000E+00  0.00000000E+00  0.00000000E+00
  0.00000000E+00  0.00000000E+00  0.00000000E+00
  0.00000000E+00  0.00000000E+00  0.00000000E+00
  0.00000000E+00  0.00000000E+00  0.00000000E+00
  0.00000000E+00  0.00000000E+00  0.00000000E+00
  0.00000000E+00  0.00000000E+00  0.00000000E+00
  0.00000000E+00  0.00000000E+00  0.00000000E+00
  0.00000000E+00  0.00000000E+00  0.00000000E+00
  0.00000000E+00  0.00000000E+00  0.00000000E+00
  0.00000000E+00  0.00000000E+00  0.00000000E+00
  0.00000000E+00  0.00000000E+00  0.00000000E+00
  0.00000000E+00  0.00000000E+00  0.00000000E+00
  0.00000000E+00  0.00000000E+00  0.00000000E+00
  0.00000000E+00  0.00000000E+00  0.00000000E+00
  0.00000000E+00  0.00000000E+00  0.00000000E+00
  0.00000000E+00  0.00000000E+00  0.00000000E+00
  0.00000000E+00  0.00000000E+00  0.00000000E+00
  0.00000000E+00  0.00000000E+00  0.00000000E+00
  0.00000000E+00  0.00000000E+00  0.00000000E+00
  0.00000000E+00  0.00000000E+00  0.00000000E+00
  0.00000000E+00  0.00000000E+00  0.00000000E+00
  0.00000000E+00  0.00000000E+00  0.00000000E+00
  0.00000000E+00  0.00000000E+00  0.00000000E+00
  0.00000000E+00  0.00000000E+00  0.00000000E+00
  0.00000000E+00  0.00000000E+00  0.00000000E+00
  0.00000000E+00  0.00000000E+00  0.00000000E+00
  0.00000000E+00  0.00000000E+00  0.00000000E+00
  0.00000000E+00  0.00000000E+00  0.00000000E+00
  0.00000000E+00  0.00000000E+00  0.00000000E+00
  0.00000000E+00  0.00000000E+00  0.00000000E+00
  0.00000000E+00  0.00000000E+00  0.00000000E+00
  0.00000000E+00  0.00000000E+00  0.00000000E+00
  0.00000000E+00  0.00000000E+00  0.00000000E+00
  0.00000000E+00  0.00000000E+00  0.00000000E+00
  0.00000000E+00  0.00000000E+00  0.00000000E+00
  0.00000000E+00  0.00000000E+00  0.00000000E+00
  0.00000000E+00  0.00000000E+00  0.00000000E+00
  0.00000000E+00  0.00000000E+00  0.00000000E+00
  0.00000000E+00  0.00000000E+00  0.00000000E+00
  0.00000000E+00  0.00000000E+00  0.00000000E+00
  0.00000000E+00  0.00000000E+00  0.00000000E+00
  0.00000000E+00  0.00000000E+00  0.00000000E+00
  0.00000000E+00  0.00000000E+00  0.00000000E+00
  0.00000000E+00  0.00000000E+00  0.00000000E+00
  0.00000000E+00  0.00000000E+00  0.00000000E+00
  0.00000000E+00  0.00000000E+00  0.00000000E+00
  0.00000000E+00  0.00000000E+00  0.00000000E+00
  0.00000000E+00  0.00000000E+00  0.00000000E+00
  0.00000000E+00  0.00000000E+00  0.00000000E+00
  0.00000000E+00  0.00000000E+00  0.00000000E+00
  0.00000000E+00  0.00000000E+00  0.00000000E+00
  0.00000000E+00  0.00000000E+00  0.00000000E+00
  0.00000000E+00  0.00000000E+00  0.00000000E+00
  0.00000000E+00  0.00000000E+00  0.00000000E+00
  0.00000000E+00  0.00000000E+00  0.00000000E+00
  0.00000000E+00  0.00000000E+00  0.00000000E+00
  0.00000000E+00  0.00000000E+00  0.00000000E+00
  0.00000000E+00  0.00000000E+00  0.00000000E+00
  0.00000000E+00  0.00000000E+00  0.00000000E+00
  0.00000000E+00  0.00000000E+00  0.00000000E+00
  0.00000000E+00  0.00000000E+00  0.00000000E+00
  0.00000000E+00  0.00000000E+00  0.00000000E+00
  0.00000000E+00  0.00000000E+00  0.00000000E+00
  0.00000000E+00  0.00000000E+00  0.00000000E+00
  0.00000000E+00  0.00000000E+00  0.00000000E+00
  0.00000000E+00  0.00000000E+00  0.00000000E+00
  0.00000000E+00  0.00000000E+00  0.00000000E+00
  0.00000000E+00  0.00000000E+00  0.00000000E+00
  0.00000000E+00  0.00000000E+00  0.00000000E+00
  0.00000000E+00  0.00000000E+00  0.00000000E+00
  0.00000000E+00  0.00000000E+00  0.00000000E+00
  0.00000000E+00  0.00000000E+00  0.00000000E+00
  0.00000000E+00  0.00000000E+00  0.00000000E+00
  0.00000000E+00  0.00000000E+00  0.00000000E+00
  0.00000000E+00  0.00000000E+00  0.00000000E+00
  0.00000000E+00  0.00000000E+00  0.00000000E+00
  0.00000000E+00  0.00000000E+00  0.00000000E+00
  0.00000000E+00  0.00000000E+00  0.00000000E+00
  0.00000000E+00  0.00000000E+00  0.00000000E+00
  0.00000000E+00  0.00000000E+00  0.00000000E+00
  0.00000000E+00  0.00000000E+00  0.00000000E+00
  0.00000000E+00  0.00000000E+00  0.00000000E+00
  0.00000000E+00  0.00000000E+00  0.00000000E+00
  0.00000000E+00  0.00000000E+00  0.00000000E+00
  0.00000000E+00  0.00000000E+00  0.00000000E+00
  0.00000000E+00  0.00000000E+00  0.00000000E+00
  0.00000000E+00  0.00000000E+00  0.00000000E+00
