System
1.0
5.64708 -0.02144 -0.09082
-2.79655 4.92022 -0.00371
0.07389 0.03548 9.14311
Li Mn Co Ni O 
3 3 2 3 16 
direct
0.9968950607304519 0.0005497516388962999 0.9966733688460259 a
0.9932356925064512 0.9965620357333814 0.49560867327104713 a
0.6660920689858856 0.3323676869094688 0.3976004029543819 a
0.167853836166626 0.8243120384506598 0.21344249627014214 a
0.1689555293977104 0.34151873747838724 0.20963236109093633 a
0.339086958690301 0.16922836755388573 0.7136684272005743 a
0.33283749731646856 0.6653523966997933 0.4876783159608889 a
0.6696639478974779 0.33510207759432964 0.9845642181813579 a
0.829451717845788 0.1694650828243802 0.7127954629453138 a
0.6603928622116348 0.8286895336523784 0.21230196467413903 a
0.8292325151652592 0.6593348908619757 0.712884676200088 a
0.33569215928297397 0.1698395440176809 0.10471084938660491 a
0.8414390889789375 0.6699204536283212 0.09656477954818551 a
0.6652656504757608 0.3324909657685135 0.608344481280141 a
0.5188981380325144 0.0413592354144717 0.8433785264359983 a
0.5168730545574738 0.47635091225811665 0.8428372416216645 a
0.6664026631608524 0.8317827228432835 0.5928617090940004 a
0.4681290256543028 0.5116524855144976 0.34329782897392186 a
0.0382855743816031 0.5198556441758333 0.34229487236805994 a
0.16945538724520628 0.3300111062718669 0.5982371104831493 a
-0.0023596992505624022 -0.0016244294807321003 0.8068641204200688 a
0.0013886709329308993 0.00038716316720919977 0.3061352160522538 a
0.3353870715062261 0.6681947421757621 0.10339269008284521 a
0.9613629656073815 0.48073501504059823 0.846573730057369 a
0.17087489352385488 0.8390908136672854 0.5981855348289685 a
0.4763967735678623 0.9570160286713879 0.34375061695467063 a
0.8452727251280164 0.18116169510300742 0.09965908857209081 a
