System
1.0
5.456622285075079 0.1239035068700043 8.45470436548775
2.52277931340429 4.948083942287817 8.497380726282184
0.0471109604962526 0.119725846506721 10.113963373827424
Li Co O 
1 8 16 
direct
0.7452610655623317 0.2566521146464883 0.7492702544501951 Li
0.0028799605748614 0.0009802514244765 0.0015937867309122 Co
0.0020924541043239 0.9990351184125608 0.4994619981459236 Co
0.0030458188257123 0.5007960993107807 0.0018071328520334 Co
0.0018673548157581 0.4993995924385976 0.4991026239469916 Co
0.5008554039259918 0.9986029474181468 0.0005222067483372 Co
0.4989340270236283 0.997310550989737 0.4975778131143431 Co
0.5005987759630042 0.498911469347648 0.0002022021429087 Co
0.4990671305663804 0.4970716763413698 0.4978605626649847 Co
0.1298244493229762 0.1396627122494825 0.1324560815145564 O
0.118843411962656 0.1376562611949402 0.6418827184555266 O
0.1295920629678984 0.6399167032000704 0.1321610636752353 O
0.1190120387421227 0.6374099686478634 0.6421835378396953 O
0.6398153415957164 0.1366558184888651 0.1212395200440328 O
0.636219992240388 0.1225646093922814 0.6376644349724887 O
0.639997842354992 0.6364174444348245 0.1215387712856564 O
0.63601530663459 0.6228540913205425 0.6373223589190885 O
0.3688624406669415 0.3633061159986921 0.3640071160783367 O
0.377120862395278 0.3601863631389135 0.863700612679796 O
0.3690664639868703 0.8630349853399029 0.3643407024979613 O
0.3769548587035441 0.8603860573993833 0.8634414709179091 O
0.868988363732525 0.3597878491464478 0.3722559004638031 O
0.8692264366396798 0.3705689030411048 0.8643355247572565 O
0.8688261898976408 0.8600165589797363 0.3719523397388614 O
0.8694704692427113 0.8702732112984127 0.8646300736676487 O
