System
1.0
5.614812648852439 0.0707283138288691 9.509812194569832
2.650139232653794 4.95073723591047 9.509778751342445
0.1171322137454285 0.0713689117299501 11.053337947524392
Na Co O 
5 8 16 
direct
0.2498436185663896 0.7501296246869864 0.2508792984893459 Na
0.2496649325999695 0.7505106077195813 0.748793275563322 Na
0.75011392157247 0.2498463274164741 0.2509007285392567 Na
0.7504992961029726 0.2496653201777004 0.7488132330523747 Na
0.7505526290200694 0.75056190065912 0.7494362100998629 Na
0.0013700954150713 0.0013602532040611 7.76852834627e-05 Co
0.0011106826556205 0.0011045701704931 0.4997266481359415 Co
0.000959642773402 0.498392095687366 -8.22704335302e-05 Co
0.0011261089867843 0.4992343915965704 0.5001101625674255 Co
0.4983945807047943 0.0009565437633076 -8.13170672051e-05 Co
0.4992254117115004 0.001134877836503 0.500112095859106 Co
0.4989814651585692 0.4989696830381287 0.0002388012227904 Co
0.4982611316403133 0.4982565425106899 0.5003092192330003 Co
0.1352434844687786 0.1352515855567577 0.1365975926441827 O
0.1335549218068287 0.1334651582267586 0.641438156256289 O
0.1341135611680445 0.6407150685029956 0.133318039807218 O
0.1354842845226946 0.6344802635365878 0.6368765104546129 O
0.6406345835159994 0.1340343054510121 0.1334520015654733 O
0.6344946143700821 0.1354756859065213 0.6368680571574441 O
0.6350208704328383 0.6350118885838067 0.1327443501724681 O
0.6345666428866665 0.6346523078383265 0.6354048940972542 O
0.3667828483602353 0.3667034855120962 0.3589848615592434 O
0.3655738539217411 0.3655749304464196 0.8615888249760583 O
0.3703399512475984 0.8579334853414847 0.363766214444189 O
0.3664260387111193 0.8597958107831714 0.8666660040842583 O
0.8579372532780026 0.3703384338890294 0.3637601929531458 O
0.8597212926149836 0.3663397638339387 0.8667975003940864 O
0.865629044731852 0.8657229685093757 0.3648822179233736 O
0.8635813051847883 0.8635679231239682 0.8679624401642123 O
