System
1.0
9.897317950528732 -0.0029271268046785 -0.0007080970859342
0.0041209076868966 12.699359464741258 -0.0001603373987241
0.0006672815599464 0.000126383522056 9.369809233586876
Li Fe P O 
5 16 16 64 
direct
0.2401903152481886 0.1257200200461451 0.1711863867432108 Li
0.7369243133467723 0.1232101150346594 0.182149189699244 Li
0.0078188787971464 0.6265194289145721 0.6771776717834828 Li
0.5119801173153169 0.6243734264244708 0.6791243882838445 Li
0.7648552650091193 0.3717722635508236 0.8239520105857688 Li
0.0061402644245295 0.999362820333218 0.984415191218041 Fe
0.9977685860320594 0.5030327031971344 0.0098592680845461 Fe
0.5063915760911927 0.0045054434326777 0.9906661558216014 Fe
0.4991432829907518 0.4995578202846871 0.0106328473489608 Fe
-0.0008181477344782 0.2542818520528919 0.0021829331183842 Fe
0.9838944294933241 0.7534199790964574 0.0230942067612308 Fe
0.4998675597848128 0.2456713770709341 -0.0017069662341706 Fe
0.4840211032493253 0.7639054412527185 0.0108081351437728 Fe
0.2653417193397022 0.9901265752543887 0.5151930623429564 Fe
0.2325571128886169 0.5096026909478151 0.4761998293775084 Fe
0.7671720561536457 0.9880010547363555 0.5094617201051199 Fe
0.73565974727274 0.5050151284714931 0.4806537895873583 Fe
0.2608074068332566 0.2525069846593016 0.5060260238370907 Fe
0.2453870703813125 0.753744460410195 0.4935431891462718 Fe
0.7559616414979586 0.2521101168662971 0.4973591004553766 Fe
0.7379463954443657 0.7464504358695069 0.4917223660267349 Fe
0.2622961335017082 0.1287245219823784 0.822880949109148 P
0.266444155683409 0.6177378938793596 0.8250944649045044 P
0.7691359195385691 0.1286797081547404 0.8165436439709148 P
0.7656744230421871 0.6138516453009046 0.8311149514049525 P
0.0199655157732898 0.3722515228426823 0.6716714854823239 P
0.0188663347277604 0.8720929488194538 0.6796942625825356 P
0.5177453901174903 0.3798494675634354 0.6733616101859318 P
0.5181392914644868 0.868529651787685 0.677171158204813 P
0.4860712598029743 0.1277302526285563 0.33674371400639 P
0.4752140928526345 0.6305122192076885 0.3165673521102598 P
0.9883607982055462 0.1277614184678796 0.326154381043795 P
0.9758173453262825 0.6255605620932801 0.3263795888837973 P
0.2360024850696924 0.3772727609010335 0.1792375850717611 P
0.2296555939606098 0.881684080130628 0.1752829155880775 P
0.7354318124836345 0.3610636037035909 0.1744409615518042 P
0.7326100883064524 0.8849066623520753 0.1736963315845719 P
0.1102441577100104 0.1278134805690536 0.8849439709196733 O
0.114770855582885 0.6208564021324039 0.8662418816289572 O
0.6215058383989702 0.1277034108035031 0.8688190325177554 O
0.6118501951164961 0.6140437864571263 0.876358409673113 O
0.0485618098753724 0.3677680284260995 0.8398139359028678 O
0.0270756700335962 0.8754234762810984 0.8506317780938134 O
0.5408972753062888 0.3784663040927086 0.8417931088897468 O
0.525732078539431 0.8708301314587628 0.8451903050898634 O
0.2725687515333483 0.1263499649520391 0.6522648420443348 O
0.2906817704850482 0.6159660576333144 0.656730501620719 O
0.784626275273319 0.1257905298861908 0.6468905436658413 O
0.7877919087704461 0.6224849818151483 0.66580762282513 O
0.3636877997235053 0.366911824957265 0.6335529101492329 O
0.3680327460423907 0.8802534522260136 0.6217676554206039 O
0.866919464408831 0.364982324317415 0.6335424453343521 O
0.869741487812534 0.8819573944798171 0.6251877455081329 O
0.0970332719665986 0.2801437625633261 0.6051093511509662 O
0.0803190499638412 0.766766181257556 0.6311667448400855 O
0.6024340707008671 0.2883644239981485 0.613840511009009 O
0.5729179536362982 0.7619818302163197 0.6240831363191743 O
0.0824081367940981 0.4773720345954503 0.6174171001034291 O
0.1009772378181249 0.9650385593442244 0.6202406581414148 O
0.571675831016347 0.4850166558447035 0.6159990550726473 O
0.6043122201191832 0.9592379825026482 0.6162996743124958 O
0.4183825664428504 0.0309697636068321 0.4040239315576936 O
0.3972124457230253 0.5330195198460663 0.3745397221150781 O
0.9168787622137465 0.0292858131493951 0.3835908594012167 O
0.908548309407783 0.5234951225994192 0.3735695370369841 O
0.1670334202539213 0.2740475394147618 0.1218338147666953 O
0.1511156244989864 0.7864676480564173 0.1178655303971026 O
0.6709657593778442 0.2580248208790414 0.1206942007244287 O
0.6506450551607579 0.7919985061674646 0.1129104664368461 O
0.1423142582724503 0.1299673329006905 0.3636981498624899 O
0.128543282271814 0.6223810065318679 0.3838704612658754 O
0.6416172766598279 0.1295050866313975 0.3755285952532977 O
0.6226972379477999 0.6255682485941764 0.3712930946865808 O
0.2242220303620707 0.373866536381821 0.3503993955374882 O
0.2196892118334395 0.8876883835466158 0.3419858705225658 O
0.7226638582326642 0.3652714083126857 0.3416380984040354 O
0.7255825991098258 0.8828793260767364 0.3411654259452793 O
0.455095828377851 0.1257447788536601 0.172086726069677 O
0.469464154024378 0.6251789669653274 0.1438965236456294 O
0.9622518759379921 0.1288108529290035 0.154457675296614 O
0.97018871201039 0.6317840484778149 0.1572315474921648 O
0.3848818020013426 0.3784584717553514 0.1201576222714798 O
0.3783358324811094 0.8753562508982831 0.1165189775340241 O
0.8854182764134879 0.362912151796736 0.1149665297821893 O
0.8835678668133112 0.877265079237739 0.113007570835109 O
0.3261515230848354 0.2328778231056086 0.8747323710817168 O
0.3448053115048459 0.7126766421095695 0.8843012453559592 O
0.840207805991063 0.2308388698086631 0.873404365140705 O
0.8413941618165176 0.7072227553581324 0.9003038510712128 O
0.1605418632419956 0.4736201878422787 0.1276285080340297 O
0.1631981147292527 0.9843704109197152 0.1144677657439576 O
0.6587772169420667 0.4565821206314108 0.112543757881551 O
0.673871109642882 0.9900655204003639 0.1201730129597478 O
0.4186700655037628 0.2277394056915662 0.3977606023172385 O
0.4046374621069177 0.7309067843046586 0.3634952294843093 O
0.9154402512265478 0.2254667474328784 0.3845117947916196 O
0.9114465430307838 0.7244801277169569 0.3869496784587082 O
0.3350186243987491 0.0333783922885244 0.8815519883354728 O
0.3353889458298274 0.515816795013166 0.8848411044393059 O
0.8475884660936448 0.0345188287834302 0.8791357212371199 O
0.8321195682427551 0.5095069084921475 0.8805625109571321 O
