System                                  
   1.0000000000000000     
    10.3626541995670749    0.6680397148495248    5.8900744478487770
     3.5100475804119782   10.0732086450450389    5.5779958001142633
    -0.2770176937874708    0.4281704396772118   11.5097365705302366
  Li              Mn              O             
     2    32    64
Direct
     0.4351669927790976    0.9383643133741613    0.4386569888267270
     0.9377332395101938    0.4349619057971957    0.9380366647822421
     0.2469401057468195    0.2442980550884435    0.0030663659989801
     0.2432369426317457    0.2472657956694643    0.5038671655897630
     0.2512846523918907    0.7468702471443589    0.0014766744111298
     0.2537760180089643    0.7522873084133447    0.4995132918006485
     0.7516727202230691    0.2523736552835139   -0.0011132899966710
     0.7468632235156718    0.2506515820144856    0.5003234832695317
     0.7527883001388946    0.7511100027206437    0.9985251122859966
     0.7515248761173036    0.7521540038157257    0.4986831771186935
     0.2480027275727938    0.9991724901975059    0.2498843081035138
     0.2473666913034335    0.9988000244573387    0.7537090033337169
     0.2451269707435948    0.4967775310195293    0.2551054529268431
     0.2542173165488217    0.4980101178110566    0.7485869263235856
     0.7513158377517762    0.0054802283434282    0.2463358559134793
     0.7512834475999625    0.0001359285389940    0.7488194478246508
     0.7508853350860996    0.5014641784382021    0.2505285472311851
     0.7504566527312474    0.5010493180775126    0.7471252545574221
     0.9988799632875016    0.2478249024791630    0.2531693424601726
     0.9983957812580065    0.2471820762707704    0.7502436894851491
     0.0006770582093879    0.7513651913121603    0.2495357891853898
     0.0059783061374949    0.7512267900297396    0.7469336786285520
     0.4978192461332840    0.2539052217338272    0.2495270789779070
     0.4964251472422891    0.2447627042533514    0.7531704614353341
     0.5018750926102882    0.7509746760394543    0.2470669916328419
     0.5015594003181376    0.7506128472082042    0.7510873174645530
     0.2439751190363855    0.2475653675561758    0.2552842560373852
     0.2466937572175954    0.2437313184303174    0.7554320445231772
     0.2512038182165212    0.7470832973301981    0.2518138704876349
     0.2528683734368932    0.7520620974935870    0.7466533509554507
     0.7519791387702848    0.2534002822999673    0.2448764358878012
     0.7462644769162552    0.2509195936180206    0.7509227119782967
     0.7517141046755983    0.7522232447287494    0.2478049593105707
     0.7530236997433712    0.7505891799883899    0.7478684413744523
     0.1341925542535060    0.1319380232462760    0.3530791704808466
     0.1339817102455952    0.1302404888838528    0.8537657292454292
     0.1366508497001677    0.6359891882797427    0.3516533427951804
     0.1427979279525908    0.6414363607442367    0.8457927437023487
     0.6433534750908250    0.1394211341924547    0.3450764715493488
     0.6386757746545451    0.1330712356876106    0.8502773165003706
     0.6401295415784746    0.6374227619960234    0.3479991043215203
     0.6414787610506111    0.6358095771863007    0.8481445194965503
     0.1237297738252635    0.3463891018137542    0.1365962779819886
     0.1229344578446967    0.3457792855234117    0.6400519234682878
     0.1289561908483559    0.8473152505713500    0.1358268315901563
     0.1270325129007017    0.8533895086329055    0.6336571401505583
     0.6463278073384506    0.3579106029627405    0.1206769117415027
     0.6210654482057538    0.3480130605386868    0.6376444830710980
     0.6290096385933025    0.8507620455602853    0.1321848540679569
     0.6289054627832191    0.8503650853777338    0.6351053244936469
     0.3460802412545892    0.1243652910611397    0.1428705119305720
     0.3455041453683834    0.1236538158799820    0.6407444112093548
     0.3484926742013705    0.6214656556081070    0.1427690577398930
     0.3584065375072683    0.6467586586918627    0.6247063999953334
     0.8531767061009338    0.1267717015075382    0.1362262157505989
     0.8469835626648163    0.1285476445678299    0.6384103841902883
     0.8511473423190790    0.6283081818432849    0.1384635361249051
     0.8510953900833821    0.6277500060094596    0.6360223538067850
     0.1316940163990820    0.1342207392978923    0.1308603138543622
     0.1300125169156701    0.1342044953480283    0.6317934865657521
     0.1335911938308816    0.6391974759145934    0.1273524961159144
     0.1399401661439615    0.6435364676497213    0.6219608403398175
     0.6412573136935186    0.1420657807105331    0.1206427918014356
     0.6358035897354757    0.1360156138064958    0.6261049155948815
     0.6376720132389345    0.6398749163786299    0.1246697247548637
     0.6362488259077352    0.6411192700984767    0.6246070484265794
     0.3527994276664184    0.3626537833919536    0.1562322037852604
     0.3582430352639949    0.3542847535080056    0.6555521975557135
     0.3623550368956289    0.8632308934453647    0.1498851714584860
     0.3654756862708041    0.8687165034397303    0.6464330280968034
     0.8657987131844019    0.3685036210762792    0.1456263460531144
     0.8593030868621784    0.3650783099417921    0.6497309687919109
     0.8610843672206481    0.8664058864282044    0.1500012783394861
     0.8637284945332633    0.8636382462615033    0.6497995549173530
     0.3533456426138751    0.1393432338539051    0.3802093840508968
     0.3714753891320654    0.1435172586283940    0.8688916109660638
     0.3770388469262799    0.6519576005225162    0.3644859047091633
     0.3767000354457680    0.6513141631837708    0.8621203718776698
     0.8719535104297975    0.1521714847573308    0.3653665383148468
     0.8710206488316455    0.1520764137603588    0.8632798805468382
     0.8724455380359828    0.6532833449411614    0.3640358292450835
     0.8778607469931540    0.6459280107510090    0.8649621894577291
     0.1433389936450136    0.3722321035036918    0.3655534516028931
     0.1387915042100377    0.3537192789860506    0.8769571648533560
     0.1525813428138007    0.8720941791196247    0.3602835406148863
     0.1523672520126735    0.8714694889395379    0.8632510860726760
     0.6516986557501167    0.3766477934385027    0.3570113163703793
     0.6507853841875176    0.3763560945299816    0.8603884503152820
     0.6465118772229386    0.8770685061480915    0.3617301449209080
     0.6537844560082944    0.8714571112339686    0.8605616416673666
     0.3540755914538161    0.3585455652419605    0.3818015414117131
     0.3624479673690107    0.3526642537120933    0.8783363411734129
     0.3688155240553772    0.8661783078117895    0.3697686890386953
     0.3654764297197614    0.8598917369707519    0.8752922876951815
     0.8629987983257047    0.3618310514112675    0.3750380229311904
     0.8683100164017676    0.3649334581254232    0.8698513527574615
     0.8641635451174814    0.8632651207734853    0.3730452723200229
     0.8666528496950915    0.8607564450338494    0.8727636867811746

  0.00000000E+00  0.00000000E+00  0.00000000E+00
  0.00000000E+00  0.00000000E+00  0.00000000E+00
  0.00000000E+00  0.00000000E+00  0.00000000E+00
  0.00000000E+00  0.00000000E+00  0.00000000E+00
  0.00000000E+00  0.00000000E+00  0.00000000E+00
  0.00000000E+00  0.00000000E+00  0.00000000E+00
  0.00000000E+00  0.00000000E+00  0.00000000E+00
  0.00000000E+00  0.00000000E+00  0.00000000E+00
  0.00000000E+00  0.00000000E+00  0.00000000E+00
  0.00000000E+00  0.00000000E+00  0.00000000E+00
  0.00000000E+00  0.00000000E+00  0.00000000E+00
  0.00000000E+00  0.00000000E+00  0.00000000E+00
  0.00000000E+00  0.00000000E+00  0.00000000E+00
  0.00000000E+00  0.00000000E+00  0.00000000E+00
  0.00000000E+00  0.00000000E+00  0.00000000E+00
  0.00000000E+00  0.00000000E+00  0.00000000E+00
  0.00000000E+00  0.00000000E+00  0.00000000E+00
  0.00000000E+00  0.00000000E+00  0.00000000E+00
  0.00000000E+00  0.00000000E+00  0.00000000E+00
  0.00000000E+00  0.00000000E+00  0.00000000E+00
  0.00000000E+00  0.00000000E+00  0.00000000E+00
  0.00000000E+00  0.00000000E+00  0.00000000E+00
  0.00000000E+00  0.00000000E+00  0.00000000E+00
  0.00000000E+00  0.00000000E+00  0.00000000E+00
  0.00000000E+00  0.00000000E+00  0.00000000E+00
  0.00000000E+00  0.00000000E+00  0.00000000E+00
  0.00000000E+00  0.00000000E+00  0.00000000E+00
  0.00000000E+00  0.00000000E+00  0.00000000E+00
  0.00000000E+00  0.00000000E+00  0.00000000E+00
  0.00000000E+00  0.00000000E+00  0.00000000E+00
  0.00000000E+00  0.00000000E+00  0.00000000E+00
  0.00000000E+00  0.00000000E+00  0.00000000E+00
  0.00000000E+00  0.00000000E+00  0.00000000E+00
  0.00000000E+00  0.00000000E+00  0.00000000E+00
  0.00000000E+00  0.00000000E+00  0.00000000E+00
  0.00000000E+00  0.00000000E+00  0.00000000E+00
  0.00000000E+00  0.00000000E+00  0.00000000E+00
  0.00000000E+00  0.00000000E+00  0.00000000E+00
  0.00000000E+00  0.00000000E+00  0.00000000E+00
  0.00000000E+00  0.00000000E+00  0.00000000E+00
  0.00000000E+00  0.00000000E+00  0.00000000E+00
  0.00000000E+00  0.00000000E+00  0.00000000E+00
  0.00000000E+00  0.00000000E+00  0.00000000E+00
  0.00000000E+00  0.00000000E+00  0.00000000E+00
  0.00000000E+00  0.00000000E+00  0.00000000E+00
  0.00000000E+00  0.00000000E+00  0.00000000E+00
  0.00000000E+00  0.00000000E+00  0.00000000E+00
  0.00000000E+00  0.00000000E+00  0.00000000E+00
  0.00000000E+00  0.00000000E+00  0.00000000E+00
  0.00000000E+00  0.00000000E+00  0.00000000E+00
  0.00000000E+00  0.00000000E+00  0.00000000E+00
  0.00000000E+00  0.00000000E+00  0.00000000E+00
  0.00000000E+00  0.00000000E+00  0.00000000E+00
  0.00000000E+00  0.00000000E+00  0.00000000E+00
  0.00000000E+00  0.00000000E+00  0.00000000E+00
  0.00000000E+00  0.00000000E+00  0.00000000E+00
  0.00000000E+00  0.00000000E+00  0.00000000E+00
  0.00000000E+00  0.00000000E+00  0.00000000E+00
  0.00000000E+00  0.00000000E+00  0.00000000E+00
  0.00000000E+00  0.00000000E+00  0.00000000E+00
  0.00000000E+00  0.00000000E+00  0.00000000E+00
  0.00000000E+00  0.00000000E+00  0.00000000E+00
  0.00000000E+00  0.00000000E+00  0.00000000E+00
  0.00000000E+00  0.00000000E+00  0.00000000E+00
  0.00000000E+00  0.00000000E+00  0.00000000E+00
  0.00000000E+00  0.00000000E+00  0.00000000E+00
  0.00000000E+00  0.00000000E+00  0.00000000E+00
  0.00000000E+00  0.00000000E+00  0.00000000E+00
  0.00000000E+00  0.00000000E+00  0.00000000E+00
  0.00000000E+00  0.00000000E+00  0.00000000E+00
  0.00000000E+00  0.00000000E+00  0.00000000E+00
  0.00000000E+00  0.00000000E+00  0.00000000E+00
  0.00000000E+00  0.00000000E+00  0.00000000E+00
  0.00000000E+00  0.00000000E+00  0.00000000E+00
  0.00000000E+00  0.00000000E+00  0.00000000E+00
  0.00000000E+00  0.00000000E+00  0.00000000E+00
  0.00000000E+00  0.00000000E+00  0.00000000E+00
  0.00000000E+00  0.00000000E+00  0.00000000E+00
  0.00000000E+00  0.00000000E+00  0.00000000E+00
  0.00000000E+00  0.00000000E+00  0.00000000E+00
  0.00000000E+00  0.00000000E+00  0.00000000E+00
  0.00000000E+00  0.00000000E+00  0.00000000E+00
  0.00000000E+00  0.00000000E+00  0.00000000E+00
  0.00000000E+00  0.00000000E+00  0.00000000E+00
  0.00000000E+00  0.00000000E+00  0.00000000E+00
  0.00000000E+00  0.00000000E+00  0.00000000E+00
  0.00000000E+00  0.00000000E+00  0.00000000E+00
  0.00000000E+00  0.00000000E+00  0.00000000E+00
  0.00000000E+00  0.00000000E+00  0.00000000E+00
  0.00000000E+00  0.00000000E+00  0.00000000E+00
  0.00000000E+00  0.00000000E+00  0.00000000E+00
  0.00000000E+00  0.00000000E+00  0.00000000E+00
  0.00000000E+00  0.00000000E+00  0.00000000E+00
  0.00000000E+00  0.00000000E+00  0.00000000E+00
  0.00000000E+00  0.00000000E+00  0.00000000E+00
  0.00000000E+00  0.00000000E+00  0.00000000E+00
  0.00000000E+00  0.00000000E+00  0.00000000E+00
  0.00000000E+00  0.00000000E+00  0.00000000E+00
