System
1.0
8.59185 -0.00105 -1e-05
0.00108 8.59183 -1e-05
1e-05 0.0 3.67553
Li Fe O 
11 4 12 
direct
0.1059401226531958 0.3628885547103862 0.5000001449472989 i
0.1371181264543904 0.605939493338968 2.2955635799999944e-08 i
0.3384949091315654 0.6615102175835376 0.5000000369685412 f
0.36289403051895375 0.1059397034080229 0.5000001982211392 i
0.39406153421223844 0.8629042159653766 -5.7350169800000065e-08 i
0.605940484307485 0.1371166625934184 3.337668030000006e-08 i
0.6371109409222605 0.8940616662254901 0.49999974465650004 i
0.6615091453678273 0.3384962118754871 0.5000001021075354 f
0.8384931915920935 0.8384916341771534 -2.817377976000003e-07 f
0.8629004192025265 0.3940610050556226 -4.2394304800000305e-08 i
0.8940618825944663 0.6371019683187755 0.49999979925937815 i
0.882161112737809 0.11783832952993908 0.5000003443379167 f
0.617833543187861 0.6178355030733742 -4.5634622519999983e-07 f
0.3821608075613536 0.38216022757884777 1.3564450999999611e-08 f
0.11783641867055131 0.8821619237101758 0.49999978474995893 f
0.1034165399154313 0.1034181280906113 0.5000002627003006 g
0.11250227261435111 0.6727625234585526 0.49999986501735494 i
0.1727612005943799 0.3874953157719482 9.123939900000002e-08 i
0.32723513973344187 0.887499191511632 0.4999998542881817 i
0.3874970078673146 0.1727599764322292 1.843040690999998e-07 i
0.3965781208080407 0.6034163612393028 -1.1840179960000005e-07 g
0.603415701860527 0.396579192688267 2.06547601000005e-08 g
0.6124999874328327 0.8272353159201405 -4.1590230549999943e-07 i
0.6727621995777578 0.1125040590748047 0.5000001632616055 i
0.827232906519356 0.6125002294500018 -3.446350680999995e-07 i
0.8874983870811441 0.32723846230156456 0.5000001813869082 i
0.8965803260374211 0.8965817837553968 0.49999971271055693 g
