System                                  
   1.0000000000000000     
    11.2439399984648922   -0.0471307907084803   -0.1030287600924736
    -5.5713105400557463    9.7716475830354437    0.0032396572677412
     0.1238778937831189    0.0786768187885711    8.5005888344434322
  Mn              Co              Ni              O             
    12     8    12    64
Direct
     0.0823384409012761    0.4160566099894557    0.2117753423165920
     0.0816910455123183    0.9154124291212676    0.2111807361633019
     0.5816829618885290    0.4154133831685745    0.2111592669768765
     0.5823547896867217    0.9160077762834752    0.2115394989918024
     0.0832171263275867    0.1673827813902425    0.2111216338598614
     0.0830898545887347    0.6674373280437591    0.2107811560173705
     0.5831116218511293    0.1674277385646968    0.2108758156664430
     0.5832105730630313    0.6673763233440674    0.2108456889257551
     0.1659271907130588    0.0818159367230778    0.7105962706669250
     0.1669106068589585    0.5832281604358897    0.7111381185807062
     0.6670045669710937    0.0832370964267123    0.7112297506308912
     0.6658514987415245    0.5818892402958196    0.7105365719686390
     0.1675931620963133    0.3334969391156072    0.4908265244227486
     0.1669557764565633    0.8330064222471301    0.4905743635340081
     0.6669391248760840    0.3330489075119816    0.4906460097300793
     0.6675643437706461    0.8334842765446022    0.4906745099245886
     0.3339738417970641    0.1657638175949181    0.9866939062794325
     0.3346485246753869    0.6666920177946902    0.9871461813369246
     0.8347205604891004    0.1668361357689139    0.9873084772229345
     0.8339763538095614    0.6658464190624875    0.9865925678597605
     0.4151368557900966    0.0833661273556478    0.7107004683759116
     0.4153429362107361    0.5837386893540537    0.7111985417546998
     0.9154781957931014    0.0839183803351336    0.7113576954615691
     0.9150705351639409    0.5835078344730352    0.7106057236506799
     0.3300782900218417    0.4148651866889784    0.2114513775223981
     0.3301360619042916    0.9149065299345251    0.2115971182287624
     0.8301130142792117    0.4150016383831062    0.2117149337593006
     0.8301110731259047    0.9148938946596978    0.2113685950638347
     0.4147216213749471    0.3305562818518399    0.7110795003249103
     0.4160055065552533    0.8317149992249251    0.7115363650737285
     0.9159629521028844    0.3318369232475836    0.7116771347611156
     0.9146950686206893    0.8306761347892623    0.7109719565252498
     0.1660725697472153    0.0831279663342660    0.0958290708675474
     0.1665667149157781    0.5836302393225601    0.0961250535563846
     0.6666417647386247    0.0837155492286301    0.0961683672218703
     0.6659963053237050    0.5830585384986365    0.0956157158624941
     0.4171506534468472    0.3359881632900970    0.0937860340117348
     0.4177215387033477    0.8365129485518299    0.0942810153385188
     0.9177048008219344    0.3365629815015300    0.0945464274108880
     0.9172114182340282    0.8360690476045790    0.0937044897736557
     0.3353405993250874    0.1673169520490824    0.5987220732616306
     0.3363171415450347    0.6684618184095872    0.5993613272316022
     0.8364297833735050    0.1686118527142385    0.5995405857151235
     0.8352365741013001    0.6674281540695273    0.5986098850356136
     0.2610599233560190    0.0173866123104885    0.8423333599675449
     0.2613171212381059    0.5185401612959395    0.8431654876229266
     0.7614963626273678    0.0186902817058248    0.8433380261696017
     0.7610593790653775    0.5175097251362251    0.8422646316850806
     0.2611308908953446    0.2408659674282108    0.8429576290861699
     0.2622437236334325    0.7423267064926623    0.8433397803743161
     0.7621946825484505    0.2423476936011968    0.8434753266849917
     0.7610935803743676    0.7409613660973875    0.8428471089527166
     0.3362037721224537    0.4178385000036913    0.5958521815681408
     0.3386151792144483    0.9189376049377780    0.5938712505296699
     0.8384345574533117    0.4189524448833418    0.5940281738836082
     0.8362150137493674    0.9179854016471226    0.5958368766985225
     0.2425870655047445    0.2606543362920158    0.3429413125322578
     0.2424064275109706    0.7606378166637039    0.3428312437659497
     0.7424167483191402    0.2607293773576396    0.3429599369044906
     0.7425265825194048    0.7606289053115738    0.3427323636892015
     0.0194890982553039    0.2599297574180885    0.3471483736710347
     0.0186708797279610    0.7593177441576106    0.3466010272023500
     0.5186778361527533    0.2593267067429063    0.3466487464605648
     0.5194634007855711    0.7598919140122647    0.3468922969155555
     0.0830717095652613    0.1657691779026226    0.5969200432157967
     0.0841103084435746    0.6675935418784815    0.5980674911232396
     0.5840990956661576    0.1674156135841364    0.5980345793703391
     0.5828940059386843    0.6655489271995383    0.5966154147325347
     0.9953293476882217    0.9970175622733354    0.8213604623297911
     0.9960059745195941    0.4982310095965343    0.8215218758086769
     0.4960677732773193    0.9980429632198928    0.8215112604040072
     0.4952517451250431    0.4969703431744031    0.8213252284079541
     0.9950713830518435    0.9977589271213896    0.3224867855685691
     0.9953338914660058    0.4982440052021107    0.3226884784320473
     0.4953530245046716    0.9981169072708653    0.3225792396601853
     0.4951203839225758    0.4978328016170414    0.3223797460713430
     0.1685877874489600    0.3345160879522378    0.0968234536592101
     0.1687594668827870    0.8345398978602649    0.0965250158484125
     0.6687668374257463    0.3345288347731351    0.0966067187183306
     0.6686747673369353    0.8345447671657892    0.0965747056403982
     0.4813419234327222    0.2403133241550263    0.8394664087129544
     0.4822362485934225    0.7407047392617390    0.8399346829554829
     0.9823114629884936    0.2409304695015647    0.8401086727276501
     0.9813238978084035    0.7404254163793789    0.8393220803360010
     0.0831720225818079    0.4175712517018566    0.5970668217112781
     0.0820051038475452    0.9165183928166689    0.5962217699070022
     0.5820111004171304    0.4164198750526907    0.5963917844527369
     0.5833483070023006    0.9174756662077862    0.5971650021523689
     0.2417809105143231    0.4805917531204675    0.3438140206539583
     0.2410240642969844    0.9798631458845998    0.3436418616068127
     0.7409770335981771    0.4799737743628380    0.3436871678360186
     0.7417498847648600    0.9805710501476804    0.3436720442886202
     0.4148585623261606    0.0844551847923349    0.0988105091223773
     0.4150268117018064    0.5845841928762531    0.0988559138412160
     0.9151297235003681    0.0847101110002672    0.0990152446391988
     0.9147871952384538    0.5845185464522191    0.0988125854925749

  0.00000000E+00  0.00000000E+00  0.00000000E+00
  0.00000000E+00  0.00000000E+00  0.00000000E+00
  0.00000000E+00  0.00000000E+00  0.00000000E+00
  0.00000000E+00  0.00000000E+00  0.00000000E+00
  0.00000000E+00  0.00000000E+00  0.00000000E+00
  0.00000000E+00  0.00000000E+00  0.00000000E+00
  0.00000000E+00  0.00000000E+00  0.00000000E+00
  0.00000000E+00  0.00000000E+00  0.00000000E+00
  0.00000000E+00  0.00000000E+00  0.00000000E+00
  0.00000000E+00  0.00000000E+00  0.00000000E+00
  0.00000000E+00  0.00000000E+00  0.00000000E+00
  0.00000000E+00  0.00000000E+00  0.00000000E+00
  0.00000000E+00  0.00000000E+00  0.00000000E+00
  0.00000000E+00  0.00000000E+00  0.00000000E+00
  0.00000000E+00  0.00000000E+00  0.00000000E+00
  0.00000000E+00  0.00000000E+00  0.00000000E+00
  0.00000000E+00  0.00000000E+00  0.00000000E+00
  0.00000000E+00  0.00000000E+00  0.00000000E+00
  0.00000000E+00  0.00000000E+00  0.00000000E+00
  0.00000000E+00  0.00000000E+00  0.00000000E+00
  0.00000000E+00  0.00000000E+00  0.00000000E+00
  0.00000000E+00  0.00000000E+00  0.00000000E+00
  0.00000000E+00  0.00000000E+00  0.00000000E+00
  0.00000000E+00  0.00000000E+00  0.00000000E+00
  0.00000000E+00  0.00000000E+00  0.00000000E+00
  0.00000000E+00  0.00000000E+00  0.00000000E+00
  0.00000000E+00  0.00000000E+00  0.00000000E+00
  0.00000000E+00  0.00000000E+00  0.00000000E+00
  0.00000000E+00  0.00000000E+00  0.00000000E+00
  0.00000000E+00  0.00000000E+00  0.00000000E+00
  0.00000000E+00  0.00000000E+00  0.00000000E+00
  0.00000000E+00  0.00000000E+00  0.00000000E+00
  0.00000000E+00  0.00000000E+00  0.00000000E+00
  0.00000000E+00  0.00000000E+00  0.00000000E+00
  0.00000000E+00  0.00000000E+00  0.00000000E+00
  0.00000000E+00  0.00000000E+00  0.00000000E+00
  0.00000000E+00  0.00000000E+00  0.00000000E+00
  0.00000000E+00  0.00000000E+00  0.00000000E+00
  0.00000000E+00  0.00000000E+00  0.00000000E+00
  0.00000000E+00  0.00000000E+00  0.00000000E+00
  0.00000000E+00  0.00000000E+00  0.00000000E+00
  0.00000000E+00  0.00000000E+00  0.00000000E+00
  0.00000000E+00  0.00000000E+00  0.00000000E+00
  0.00000000E+00  0.00000000E+00  0.00000000E+00
  0.00000000E+00  0.00000000E+00  0.00000000E+00
  0.00000000E+00  0.00000000E+00  0.00000000E+00
  0.00000000E+00  0.00000000E+00  0.00000000E+00
  0.00000000E+00  0.00000000E+00  0.00000000E+00
  0.00000000E+00  0.00000000E+00  0.00000000E+00
  0.00000000E+00  0.00000000E+00  0.00000000E+00
  0.00000000E+00  0.00000000E+00  0.00000000E+00
  0.00000000E+00  0.00000000E+00  0.00000000E+00
  0.00000000E+00  0.00000000E+00  0.00000000E+00
  0.00000000E+00  0.00000000E+00  0.00000000E+00
  0.00000000E+00  0.00000000E+00  0.00000000E+00
  0.00000000E+00  0.00000000E+00  0.00000000E+00
  0.00000000E+00  0.00000000E+00  0.00000000E+00
  0.00000000E+00  0.00000000E+00  0.00000000E+00
  0.00000000E+00  0.00000000E+00  0.00000000E+00
  0.00000000E+00  0.00000000E+00  0.00000000E+00
  0.00000000E+00  0.00000000E+00  0.00000000E+00
  0.00000000E+00  0.00000000E+00  0.00000000E+00
  0.00000000E+00  0.00000000E+00  0.00000000E+00
  0.00000000E+00  0.00000000E+00  0.00000000E+00
  0.00000000E+00  0.00000000E+00  0.00000000E+00
  0.00000000E+00  0.00000000E+00  0.00000000E+00
  0.00000000E+00  0.00000000E+00  0.00000000E+00
  0.00000000E+00  0.00000000E+00  0.00000000E+00
  0.00000000E+00  0.00000000E+00  0.00000000E+00
  0.00000000E+00  0.00000000E+00  0.00000000E+00
  0.00000000E+00  0.00000000E+00  0.00000000E+00
  0.00000000E+00  0.00000000E+00  0.00000000E+00
  0.00000000E+00  0.00000000E+00  0.00000000E+00
  0.00000000E+00  0.00000000E+00  0.00000000E+00
  0.00000000E+00  0.00000000E+00  0.00000000E+00
  0.00000000E+00  0.00000000E+00  0.00000000E+00
  0.00000000E+00  0.00000000E+00  0.00000000E+00
  0.00000000E+00  0.00000000E+00  0.00000000E+00
  0.00000000E+00  0.00000000E+00  0.00000000E+00
  0.00000000E+00  0.00000000E+00  0.00000000E+00
  0.00000000E+00  0.00000000E+00  0.00000000E+00
  0.00000000E+00  0.00000000E+00  0.00000000E+00
  0.00000000E+00  0.00000000E+00  0.00000000E+00
  0.00000000E+00  0.00000000E+00  0.00000000E+00
  0.00000000E+00  0.00000000E+00  0.00000000E+00
  0.00000000E+00  0.00000000E+00  0.00000000E+00
  0.00000000E+00  0.00000000E+00  0.00000000E+00
  0.00000000E+00  0.00000000E+00  0.00000000E+00
  0.00000000E+00  0.00000000E+00  0.00000000E+00
  0.00000000E+00  0.00000000E+00  0.00000000E+00
  0.00000000E+00  0.00000000E+00  0.00000000E+00
  0.00000000E+00  0.00000000E+00  0.00000000E+00
  0.00000000E+00  0.00000000E+00  0.00000000E+00
  0.00000000E+00  0.00000000E+00  0.00000000E+00
  0.00000000E+00  0.00000000E+00  0.00000000E+00
  0.00000000E+00  0.00000000E+00  0.00000000E+00
