System                                  
   1.0000000000000000     
    11.3414376695480694   -0.0647836135991604   -0.2488026780888000
    -5.6337010728795018    9.9288513910399363    0.0710431474792025
     0.0222419509143507    0.0786910209071783    9.2036924770866690
  Mn              Co              Ni              O             
    12     8    12    64
Direct
     0.0826449739701251    0.4167793239206697    0.2118305287937842
     0.0817247814607723    0.9155508788598574    0.2114753750652401
     0.5818758190169898    0.4156190260242673    0.2111357163367803
     0.5825881833733152    0.9166024205640695    0.2114188482135901
     0.0827546082894954    0.1676234152094218    0.2108345123796246
     0.0828388124829930    0.6674087846041988    0.2121546265197951
     0.5831122644836944    0.1675413106256049    0.2122174172752054
     0.5828782809838001    0.6678000404149385    0.2100559668640221
     0.1654102863323412    0.0799526741277024    0.7063404072785896
     0.1680646525768734    0.5833709140153990    0.7103763719186024
     0.6687581540553346    0.0833740262800803    0.7106687156505481
     0.6650030050328507    0.5796991549795583    0.7060948827163047
     0.1694459081346602    0.3318520636285513    0.4822707435319040
     0.1663709174666310    0.8312202561051727    0.4851447325456345
     0.6671078763400212    0.3320871991806674    0.4848694821815546
     0.6686651392323063    0.8300243190760370    0.4813378911599293
     0.3336600359013715    0.1652585085504457    0.9857668567697917
     0.3347849859179923    0.6685686485654215    0.9850094419698144
     0.8346386554380930    0.1693437064996459    0.9853841806846892
     0.8335503390168897    0.6651973350162034    0.9856702953524146
     0.4154409204863246    0.0833693467562069    0.7095628565876700
     0.4168155279106647    0.5848161287280155    0.7119802246375211
     0.9185091763383844    0.0861141981142142    0.7121480752649018
     0.9150896314535041    0.5834424919736148    0.7089996618249871
     0.3299011706843896    0.4150293148654616    0.2119624631782729
     0.3299341180798372    0.9145512985191262    0.2139133844560527
     0.8299490796200611    0.4147609031125092    0.2145151986801340
     0.8300999042319233    0.9150752648411443    0.2119208497857669
     0.4135845296484569    0.3285375700319053    0.7084802706041320
     0.4168202354307672    0.8321573094717502    0.7143220802278115
     0.9173816411407896    0.3330640453667210    0.7146570238295272
     0.9132040505465474    0.8282541282735176    0.7077044293928316
     0.1669000831920073    0.0839014687330268    0.1025379740001582
     0.1683466297945703    0.5858660699152761    0.1046401552885770
     0.6676227878283630    0.0855064595273132    0.1053474884620571
     0.6670337774181651    0.5839827558604963    0.1017193953604044
     0.4167052828723085    0.3356898862502929    0.0961433813251202
     0.4164096326174109    0.8365055091276842    0.0982432204466427
     0.9162272899503908    0.3371911374619846    0.1005835636802366
     0.9168386194732167    0.8357693503730041    0.0964898724290831
     0.3334206829846572    0.1658724167011288    0.6065364221720116
     0.3367843574632966    0.6700414889083462    0.6120197543415639
     0.8376530446163523    0.1711050993652699    0.6129765161006387
     0.8328165260853825    0.6654359821975203    0.6060387097758975
     0.2623398441694959    0.0200592356336022    0.8378455846682987
     0.2617789097616608    0.5241991525096339    0.8439794611556867
     0.7620490575791539    0.0254802780367492    0.8446835508152625
     0.7623480128678859    0.5200362529441742    0.8376509843858105
     0.2611767937150745    0.2363506466599211    0.8367154614860106
     0.2630497576263943    0.7413021183626529    0.8391543718010724
     0.7631304467113167    0.2416790878768787    0.8393242318977898
     0.7610454480094510    0.7361716509412781    0.8365122975026557
     0.3260158583984852    0.4106517736528449    0.5968927698690920
     0.3378785064867264    0.9180064124752002    0.5933208086335546
     0.8354431997464820    0.4176059187596275    0.5931922644199452
     0.8226440094293814    0.9077129472067919    0.5963021124232941
     0.2408744945492793    0.2609052482682556    0.3417210097778309
     0.2399851174794453    0.7611982395774590    0.3442977919287090
     0.7405254122889756    0.2614742455387781    0.3437445654417289
     0.7404901438828172    0.7600835405054633    0.3406638660745673
     0.0229278304863553    0.2612058903919364    0.3409585409756232
     0.0211185056970393    0.7599874573482428    0.3413630913192347
     0.5216867154963266    0.2605832736370175    0.3414673590633908
     0.5224518832654806    0.7607499770824646    0.3398917162484759
     0.0871615158838626    0.1691114792143252    0.5982644052079630
     0.0876477596630485    0.6723671122957411    0.5993802590336561
     0.5876682714088535    0.1721702857988485    0.5995754724580696
     0.5850254850865608    0.6664944864658198    0.5971555895945799
     0.9978721835620026    0.9948445879660698    0.8068314389315276
     0.9993296626275587    0.5007335879473370    0.8101111641785074
     0.4991162548989581   -0.0003108806740554    0.8102145841469243
     0.4974622115845973    0.4951639636601781    0.8075206145224592
     0.9978850266165034    0.9985700083850350    0.3128428427240582
     0.9985203491593212    0.4989820382250785    0.3143123286605019
     0.4981861009257092    0.9985655446313753    0.3137951140301339
     0.4980247722581183    0.4988107024068761    0.3119157146728350
     0.1659478881062814    0.3342725152312901    0.1075902805530755
     0.1662030337819385    0.8339331255782961    0.1083934506662110
     0.6665894130365285    0.3340071754079337    0.1083790420609880
     0.6663460641951124    0.8345995468934080    0.1070562238021711
     0.4772694402632233    0.2382477208722711    0.8395809789463926
     0.4795293500667503    0.7448718234725950    0.8485562492801101
     0.9808093316459358    0.2501064048425847    0.8526610126612025
     0.9771283081209251    0.7379091708603603    0.8395923724441312
     0.0862597079997210    0.4174257928304794    0.6028027698424719
     0.0831735797317485    0.9147334514407600    0.5973535544747384
     0.5826562434578150    0.4148134292532662    0.5977201945148437
     0.5863392258332001    0.9166276076735803    0.6034194599501751
     0.2399513145329874    0.4765561788669030    0.3427037666979242
     0.2382032729589292    0.9745527548009403    0.3440661930427497
     0.7384227793055130    0.4752158419608573    0.3433476932643428
     0.7400707159889539    0.9760019192492078    0.3423241856018801
     0.4146409519898128    0.0859299527062530    0.1016292625679344
     0.4148099628468714    0.5866118939437486    0.1000094441538288
     0.9156006664420521    0.0862522945037933    0.1007143596326290
     0.9147107492233036    0.5855553614569545    0.1018622233897788

  0.00000000E+00  0.00000000E+00  0.00000000E+00
  0.00000000E+00  0.00000000E+00  0.00000000E+00
  0.00000000E+00  0.00000000E+00  0.00000000E+00
  0.00000000E+00  0.00000000E+00  0.00000000E+00
  0.00000000E+00  0.00000000E+00  0.00000000E+00
  0.00000000E+00  0.00000000E+00  0.00000000E+00
  0.00000000E+00  0.00000000E+00  0.00000000E+00
  0.00000000E+00  0.00000000E+00  0.00000000E+00
  0.00000000E+00  0.00000000E+00  0.00000000E+00
  0.00000000E+00  0.00000000E+00  0.00000000E+00
  0.00000000E+00  0.00000000E+00  0.00000000E+00
  0.00000000E+00  0.00000000E+00  0.00000000E+00
  0.00000000E+00  0.00000000E+00  0.00000000E+00
  0.00000000E+00  0.00000000E+00  0.00000000E+00
  0.00000000E+00  0.00000000E+00  0.00000000E+00
  0.00000000E+00  0.00000000E+00  0.00000000E+00
  0.00000000E+00  0.00000000E+00  0.00000000E+00
  0.00000000E+00  0.00000000E+00  0.00000000E+00
  0.00000000E+00  0.00000000E+00  0.00000000E+00
  0.00000000E+00  0.00000000E+00  0.00000000E+00
  0.00000000E+00  0.00000000E+00  0.00000000E+00
  0.00000000E+00  0.00000000E+00  0.00000000E+00
  0.00000000E+00  0.00000000E+00  0.00000000E+00
  0.00000000E+00  0.00000000E+00  0.00000000E+00
  0.00000000E+00  0.00000000E+00  0.00000000E+00
  0.00000000E+00  0.00000000E+00  0.00000000E+00
  0.00000000E+00  0.00000000E+00  0.00000000E+00
  0.00000000E+00  0.00000000E+00  0.00000000E+00
  0.00000000E+00  0.00000000E+00  0.00000000E+00
  0.00000000E+00  0.00000000E+00  0.00000000E+00
  0.00000000E+00  0.00000000E+00  0.00000000E+00
  0.00000000E+00  0.00000000E+00  0.00000000E+00
  0.00000000E+00  0.00000000E+00  0.00000000E+00
  0.00000000E+00  0.00000000E+00  0.00000000E+00
  0.00000000E+00  0.00000000E+00  0.00000000E+00
  0.00000000E+00  0.00000000E+00  0.00000000E+00
  0.00000000E+00  0.00000000E+00  0.00000000E+00
  0.00000000E+00  0.00000000E+00  0.00000000E+00
  0.00000000E+00  0.00000000E+00  0.00000000E+00
  0.00000000E+00  0.00000000E+00  0.00000000E+00
  0.00000000E+00  0.00000000E+00  0.00000000E+00
  0.00000000E+00  0.00000000E+00  0.00000000E+00
  0.00000000E+00  0.00000000E+00  0.00000000E+00
  0.00000000E+00  0.00000000E+00  0.00000000E+00
  0.00000000E+00  0.00000000E+00  0.00000000E+00
  0.00000000E+00  0.00000000E+00  0.00000000E+00
  0.00000000E+00  0.00000000E+00  0.00000000E+00
  0.00000000E+00  0.00000000E+00  0.00000000E+00
  0.00000000E+00  0.00000000E+00  0.00000000E+00
  0.00000000E+00  0.00000000E+00  0.00000000E+00
  0.00000000E+00  0.00000000E+00  0.00000000E+00
  0.00000000E+00  0.00000000E+00  0.00000000E+00
  0.00000000E+00  0.00000000E+00  0.00000000E+00
  0.00000000E+00  0.00000000E+00  0.00000000E+00
  0.00000000E+00  0.00000000E+00  0.00000000E+00
  0.00000000E+00  0.00000000E+00  0.00000000E+00
  0.00000000E+00  0.00000000E+00  0.00000000E+00
  0.00000000E+00  0.00000000E+00  0.00000000E+00
  0.00000000E+00  0.00000000E+00  0.00000000E+00
  0.00000000E+00  0.00000000E+00  0.00000000E+00
  0.00000000E+00  0.00000000E+00  0.00000000E+00
  0.00000000E+00  0.00000000E+00  0.00000000E+00
  0.00000000E+00  0.00000000E+00  0.00000000E+00
  0.00000000E+00  0.00000000E+00  0.00000000E+00
  0.00000000E+00  0.00000000E+00  0.00000000E+00
  0.00000000E+00  0.00000000E+00  0.00000000E+00
  0.00000000E+00  0.00000000E+00  0.00000000E+00
  0.00000000E+00  0.00000000E+00  0.00000000E+00
  0.00000000E+00  0.00000000E+00  0.00000000E+00
  0.00000000E+00  0.00000000E+00  0.00000000E+00
  0.00000000E+00  0.00000000E+00  0.00000000E+00
  0.00000000E+00  0.00000000E+00  0.00000000E+00
  0.00000000E+00  0.00000000E+00  0.00000000E+00
  0.00000000E+00  0.00000000E+00  0.00000000E+00
  0.00000000E+00  0.00000000E+00  0.00000000E+00
  0.00000000E+00  0.00000000E+00  0.00000000E+00
  0.00000000E+00  0.00000000E+00  0.00000000E+00
  0.00000000E+00  0.00000000E+00  0.00000000E+00
  0.00000000E+00  0.00000000E+00  0.00000000E+00
  0.00000000E+00  0.00000000E+00  0.00000000E+00
  0.00000000E+00  0.00000000E+00  0.00000000E+00
  0.00000000E+00  0.00000000E+00  0.00000000E+00
  0.00000000E+00  0.00000000E+00  0.00000000E+00
  0.00000000E+00  0.00000000E+00  0.00000000E+00
  0.00000000E+00  0.00000000E+00  0.00000000E+00
  0.00000000E+00  0.00000000E+00  0.00000000E+00
  0.00000000E+00  0.00000000E+00  0.00000000E+00
  0.00000000E+00  0.00000000E+00  0.00000000E+00
  0.00000000E+00  0.00000000E+00  0.00000000E+00
  0.00000000E+00  0.00000000E+00  0.00000000E+00
  0.00000000E+00  0.00000000E+00  0.00000000E+00
  0.00000000E+00  0.00000000E+00  0.00000000E+00
  0.00000000E+00  0.00000000E+00  0.00000000E+00
  0.00000000E+00  0.00000000E+00  0.00000000E+00
  0.00000000E+00  0.00000000E+00  0.00000000E+00
  0.00000000E+00  0.00000000E+00  0.00000000E+00
