System                                  
   1.0000000000000000     
    10.2852317212148616   -0.0002002927936414   -5.4002187051931321
    -2.8351896634306994    9.8867470578824275   -5.4002254834420542
     0.0099513128610022    0.0132069081834311   12.5149077806612770
  Mg              Mn              O             
    14    32    64
Direct
     0.1911787162802224    0.3147983657419101    0.3822782551954276
     0.1852204530280546    0.3088406215011123    0.8677461998838737
     0.1911570857506587    0.8174850193246257    0.3822772777051634
     0.1821304541990743    0.8128093563252792    0.8756034053837825
     0.6871807485493481    0.3178690287190000    0.3743816686753662
     0.6825125139834127    0.3088682214874456    0.8677559555685818
     0.6871530653501382    0.8065284237679650    0.3743352540706604
     0.6934630918331517    0.8128448154481966    0.8756613236275882
     0.3107570935975176    0.1892097203028006    0.1249979320933390
     0.3107283629335016    0.6857610716127045    0.1250146641399767
     0.3138421818019043    0.6888259542304612    0.6276373216729862
     0.8142692084605735    0.1892362402141556    0.1249893813474409
     0.8111831173543609    0.1861579831548712    0.6223708471464188
     0.8142760287599411    0.6857622739711994    0.1250070997990761
    -0.0009567719786200    0.0001020161034058    0.2501938503727136
     0.9970477383200911    0.9981322444176077    0.7486511997971206
     0.0025229261476553    0.5011547195443643    0.2523387535155016
     0.9970619612409869    0.5004816897486407    0.7486785775251790
     0.5007578832257185    1.0000753953340182    0.2501648238132534
     0.5028497257232872    0.0024152339110705    0.7537188448594496
     0.4949884370203359    0.4979566870898021    0.2459067186232559
     0.5028735704923113    0.5013529508981449    0.7537657390533482
     0.9988252592334289    0.2502022838047438    0.9976184258687233
     0.9986789107482021    0.2491117264205299    0.4962756451945252
     0.0020061050979112    0.7491347870727213    0.0040275328079845
     0.9994878565469182    0.7483284448248670    0.5012631000945472
     0.4998978861168165    0.2488673564266021    0.9998070650305599
     0.4976172923283183    0.2491257162333149    0.4963287107508269
     0.4999403549068357    0.7506455294867691   -0.0001135431151005
     0.5018091552060781    0.7483466535912505    0.5012783175796981
     0.2511480816939505    0.0001132857842343    0.2502234873512278
     0.2508827771993926    0.0023877558461182    0.7536895472707986
     0.2497660509214465    0.5011539711926213    0.2523497282324975
     0.2508957803410188    0.5013491404446425    0.7537491984803349
     0.7493850155296524    1.0000812628359073    0.2501595418431914
     0.7516344483105163    0.9981695976678476    0.7486869562953300
     0.7508566367399001    0.4979842608263370    0.2459479220931075
     0.7516421371930075    0.5004926664674737    0.7486920046610853
     0.0020341450669797    0.0049820945031090    0.0040692294785097
     0.9986736854308179    0.9971320063533293    0.4962578418583125
     0.9988253672618388    0.4974623640114003    0.9976254484703500
     0.9994921502402456    0.5029008400984735    0.5012618230901810
     0.4999406083893527    0.9992606942043029   -0.0001319264040176
     0.4975968525165594    0.9971629453019312    0.4963047704593643
     0.4999128328778538    0.5009948833918825    0.9998490955580980
     0.5018394434471650    0.5029304038919401    0.5013059965412665
     0.3734826565391652    0.3870535350774992    0.2496569681196406
     0.3989795309746739    0.4134591649678628    0.7980177605260439
     0.3717120641282347    0.8868046674268089    0.2464767014826310
     0.3781069873000118    0.8914137066385009    0.7561941056718651
     0.8761298645191794    0.3870796438375170    0.2497055776454974
     0.8763857842903719    0.3865923617195574    0.7527147183577255
     0.8747385676533311    0.8868040183051824    0.2464468429560648
     0.8870253825529787    0.9042898710638145    0.7740359653085069
     0.3653833792821385    0.1010421833785115    0.4520640995572413
     0.3903488174148802    0.1282916984675331    0.0035473217017264
     0.3838856162930078    0.6235780965650189    0.4972239817185933
     0.3903852824387399    0.6253236899934762    0.0036197287547075
     0.8851481304388221    0.1218826509964502    0.4937803109941268
     0.8873516360727854    0.1264414994261903    1.0002282840644630
     0.8803098112158885    0.6129793765060251    0.4760044755443689
     0.8873720106119111    0.6238601551940960    1.0002575993305345
     0.0865884706148686    0.1010380655133494    0.4520253763148868
     0.1129164540513534    0.1264680847844702    1.0002970167023779
     0.1134028166005108    0.6235978787262801    0.4972641656576058
     0.1128861750778163    0.6238600878486781    1.0002417895550568
     0.6085968970785073    0.1219078780421437    0.4938344143784711
     0.6132154454449300    0.1283067985674979    0.0035620232773991
     0.5956681615620317    0.6129429541183140    0.4759058207709820
     0.6132256945374369    0.6253032369767690    0.0036079403327309
     0.1246701095211976    0.1100409712337262    0.2493093165308846
     0.1216534457228280    0.1088978402199757    0.7423427404284907
     0.1246444221301313    0.6136056606564729    0.2493266185045151
     0.1247669631022694    0.6125573444944540    0.7487829251846255
     0.6239046589894415    0.1121990421987861    0.2478552299020491
     0.6207445506588384    0.1089347058081581    0.7423791255353407
     0.6106081100392463    0.6006831894865308    0.2212723605400538
     0.6240539108510035    0.6125945501919247    0.7488228093633267
     0.1245842554683190    0.3856424884551557    0.2492412161961148
     0.1217283135066829    0.3834541952263761    0.7424552796443670
     0.1246797293904206    0.8892926455349510    0.2493286295933336
     0.1247547332686164    0.8861441388159732    0.7486899744371641
     0.6106276003940307    0.3706309533981621    0.2213044546289369
     0.6207740492544934    0.3834676592538938    0.7424660169036462
     0.6238659927927991    0.8855883474091052    0.2477424632353471
     0.6239949746529100    0.8861659987952970    0.7487381847607186
     0.1143292957776116    0.3753994817487080    0.0007405077303431
     0.1165581322250546    0.3782815811211420    0.5075568070898687
     0.1293882946612928    0.8893745385463494    0.0287144795420503
     0.1165478756396455    0.8792189453579818    0.5075518264983158
     0.6107066198022079    0.3753410927722052    0.0006968705529734
     0.6138368109136926    0.3752331404821696    0.5012867791518308
     0.6144350513199880    0.8761546865394970    0.0022912425761030
     0.6138240625039659    0.8759986308522257    0.5012509270365607
     0.3717233570166857    0.1096646363715560    0.2464876692200916
     0.3989750227847134    0.1346310130763007    0.7979719609866497
     0.3735120193546895    0.6126309261734072    0.2497341269987928
     0.3781256579221340    0.6148882285234706    0.7562533473213806
     0.8747172421409215    0.1096307333734265    0.2464313898742006
     0.8764137098566940    0.1160943686669910    0.7527595280810031
     0.8761384442774572    0.6126126988526721    0.2497061936253912
     0.8869816802057972    0.6196669687144827    0.7739330137068873
     0.3899712490531112    0.3753490148418795    0.0007095795394710
     0.3911101703495865    0.3783599786688523    0.5076769641241159
     0.3878057812306545    0.8761114333511230    0.0021674228815590
     0.3910832439216486    0.8792675675773878    0.5076507006799368
     0.8863950261578899    0.3753483373664914    0.0006632623799313
     0.8874343932982548    0.3752071718030631    0.5011839291725142
     0.8993263177983984    0.8893950918030715    0.0287472132483668
     0.8874046132720446    0.8759323064655222    0.5011540174779950

  0.00000000E+00  0.00000000E+00  0.00000000E+00
  0.00000000E+00  0.00000000E+00  0.00000000E+00
  0.00000000E+00  0.00000000E+00  0.00000000E+00
  0.00000000E+00  0.00000000E+00  0.00000000E+00
  0.00000000E+00  0.00000000E+00  0.00000000E+00
  0.00000000E+00  0.00000000E+00  0.00000000E+00
  0.00000000E+00  0.00000000E+00  0.00000000E+00
  0.00000000E+00  0.00000000E+00  0.00000000E+00
  0.00000000E+00  0.00000000E+00  0.00000000E+00
  0.00000000E+00  0.00000000E+00  0.00000000E+00
  0.00000000E+00  0.00000000E+00  0.00000000E+00
  0.00000000E+00  0.00000000E+00  0.00000000E+00
  0.00000000E+00  0.00000000E+00  0.00000000E+00
  0.00000000E+00  0.00000000E+00  0.00000000E+00
  0.00000000E+00  0.00000000E+00  0.00000000E+00
  0.00000000E+00  0.00000000E+00  0.00000000E+00
  0.00000000E+00  0.00000000E+00  0.00000000E+00
  0.00000000E+00  0.00000000E+00  0.00000000E+00
  0.00000000E+00  0.00000000E+00  0.00000000E+00
  0.00000000E+00  0.00000000E+00  0.00000000E+00
  0.00000000E+00  0.00000000E+00  0.00000000E+00
  0.00000000E+00  0.00000000E+00  0.00000000E+00
  0.00000000E+00  0.00000000E+00  0.00000000E+00
  0.00000000E+00  0.00000000E+00  0.00000000E+00
  0.00000000E+00  0.00000000E+00  0.00000000E+00
  0.00000000E+00  0.00000000E+00  0.00000000E+00
  0.00000000E+00  0.00000000E+00  0.00000000E+00
  0.00000000E+00  0.00000000E+00  0.00000000E+00
  0.00000000E+00  0.00000000E+00  0.00000000E+00
  0.00000000E+00  0.00000000E+00  0.00000000E+00
  0.00000000E+00  0.00000000E+00  0.00000000E+00
  0.00000000E+00  0.00000000E+00  0.00000000E+00
  0.00000000E+00  0.00000000E+00  0.00000000E+00
  0.00000000E+00  0.00000000E+00  0.00000000E+00
  0.00000000E+00  0.00000000E+00  0.00000000E+00
  0.00000000E+00  0.00000000E+00  0.00000000E+00
  0.00000000E+00  0.00000000E+00  0.00000000E+00
  0.00000000E+00  0.00000000E+00  0.00000000E+00
  0.00000000E+00  0.00000000E+00  0.00000000E+00
  0.00000000E+00  0.00000000E+00  0.00000000E+00
  0.00000000E+00  0.00000000E+00  0.00000000E+00
  0.00000000E+00  0.00000000E+00  0.00000000E+00
  0.00000000E+00  0.00000000E+00  0.00000000E+00
  0.00000000E+00  0.00000000E+00  0.00000000E+00
  0.00000000E+00  0.00000000E+00  0.00000000E+00
  0.00000000E+00  0.00000000E+00  0.00000000E+00
  0.00000000E+00  0.00000000E+00  0.00000000E+00
  0.00000000E+00  0.00000000E+00  0.00000000E+00
  0.00000000E+00  0.00000000E+00  0.00000000E+00
  0.00000000E+00  0.00000000E+00  0.00000000E+00
  0.00000000E+00  0.00000000E+00  0.00000000E+00
  0.00000000E+00  0.00000000E+00  0.00000000E+00
  0.00000000E+00  0.00000000E+00  0.00000000E+00
  0.00000000E+00  0.00000000E+00  0.00000000E+00
  0.00000000E+00  0.00000000E+00  0.00000000E+00
  0.00000000E+00  0.00000000E+00  0.00000000E+00
  0.00000000E+00  0.00000000E+00  0.00000000E+00
  0.00000000E+00  0.00000000E+00  0.00000000E+00
  0.00000000E+00  0.00000000E+00  0.00000000E+00
  0.00000000E+00  0.00000000E+00  0.00000000E+00
  0.00000000E+00  0.00000000E+00  0.00000000E+00
  0.00000000E+00  0.00000000E+00  0.00000000E+00
  0.00000000E+00  0.00000000E+00  0.00000000E+00
  0.00000000E+00  0.00000000E+00  0.00000000E+00
  0.00000000E+00  0.00000000E+00  0.00000000E+00
  0.00000000E+00  0.00000000E+00  0.00000000E+00
  0.00000000E+00  0.00000000E+00  0.00000000E+00
  0.00000000E+00  0.00000000E+00  0.00000000E+00
  0.00000000E+00  0.00000000E+00  0.00000000E+00
  0.00000000E+00  0.00000000E+00  0.00000000E+00
  0.00000000E+00  0.00000000E+00  0.00000000E+00
  0.00000000E+00  0.00000000E+00  0.00000000E+00
  0.00000000E+00  0.00000000E+00  0.00000000E+00
  0.00000000E+00  0.00000000E+00  0.00000000E+00
  0.00000000E+00  0.00000000E+00  0.00000000E+00
  0.00000000E+00  0.00000000E+00  0.00000000E+00
  0.00000000E+00  0.00000000E+00  0.00000000E+00
  0.00000000E+00  0.00000000E+00  0.00000000E+00
  0.00000000E+00  0.00000000E+00  0.00000000E+00
  0.00000000E+00  0.00000000E+00  0.00000000E+00
  0.00000000E+00  0.00000000E+00  0.00000000E+00
  0.00000000E+00  0.00000000E+00  0.00000000E+00
  0.00000000E+00  0.00000000E+00  0.00000000E+00
  0.00000000E+00  0.00000000E+00  0.00000000E+00
  0.00000000E+00  0.00000000E+00  0.00000000E+00
  0.00000000E+00  0.00000000E+00  0.00000000E+00
  0.00000000E+00  0.00000000E+00  0.00000000E+00
  0.00000000E+00  0.00000000E+00  0.00000000E+00
  0.00000000E+00  0.00000000E+00  0.00000000E+00
  0.00000000E+00  0.00000000E+00  0.00000000E+00
  0.00000000E+00  0.00000000E+00  0.00000000E+00
  0.00000000E+00  0.00000000E+00  0.00000000E+00
  0.00000000E+00  0.00000000E+00  0.00000000E+00
  0.00000000E+00  0.00000000E+00  0.00000000E+00
  0.00000000E+00  0.00000000E+00  0.00000000E+00
  0.00000000E+00  0.00000000E+00  0.00000000E+00
  0.00000000E+00  0.00000000E+00  0.00000000E+00
  0.00000000E+00  0.00000000E+00  0.00000000E+00
  0.00000000E+00  0.00000000E+00  0.00000000E+00
  0.00000000E+00  0.00000000E+00  0.00000000E+00
  0.00000000E+00  0.00000000E+00  0.00000000E+00
  0.00000000E+00  0.00000000E+00  0.00000000E+00
  0.00000000E+00  0.00000000E+00  0.00000000E+00
  0.00000000E+00  0.00000000E+00  0.00000000E+00
  0.00000000E+00  0.00000000E+00  0.00000000E+00
  0.00000000E+00  0.00000000E+00  0.00000000E+00
  0.00000000E+00  0.00000000E+00  0.00000000E+00
  0.00000000E+00  0.00000000E+00  0.00000000E+00
  0.00000000E+00  0.00000000E+00  0.00000000E+00
  0.00000000E+00  0.00000000E+00  0.00000000E+00
