System
1.0
9.96074 0.00011 -6e-05
4e-05 12.94709 0.00158
4e-05 -0.00102 9.42854
Li Mn P O 
2 16 16 64 
direct
0.956133272187702 0.8806104754626825 0.3260078404336647 Li
0.7831766429632127 0.3700390546086548 0.8261196001899243 Li
0.5207537871471747 0.2423479735010338 0.9901413058125763 Mn
0.481763354568616 0.7519401543398966 0.0170591099048059 Mn
0.0219508676220126 0.2462772896984411 0.9920721952595325 Mn
0.9848857195744203 0.75331086630567 0.0137654040980484 Mn
0.2291167029498668 0.2427935588209179 0.4554129256260194 Mn
0.2477814794493768 0.7445261937099991 0.5229635494255587 Mn
0.7432763218658754 0.2432969991234351 0.4850040963385027 Mn
0.7426393192803079 0.7520966859858452 0.5110953353690442 Mn
0.004871098554756 0.0078654739258832 0.9787622611775687 Mn
0.0065747833213213 0.5015919759562497 0.0201976284948373 Mn
0.4984033738732958 0.9993380319786059 0.9934442384023452 Mn
0.5093318451584827 0.5010821328063224 0.0189781798120224 Mn
0.2696679015031786 0.4986800607807743 0.5095481041776513 Mn
0.235612157974149 0.9976696975908195 0.4953697243832843 Mn
0.7686277052336783 0.4995440245353848 0.5107555184848706 Mn
0.7221704427664541 0.0033159923154456 0.4930228346480866 Mn
0.2452883459339079 0.3884894494633719 0.1814164779786571 P
0.2185040907731626 0.8842229527442133 0.1712125216104401 P
0.742785952344837 0.3862993899405352 0.1862800448680179 P
0.718296347751283 0.8748908706600087 0.1705432863347011 P
0.0352230606925861 0.3715878086755061 0.6631652950043337 P
0.0119933590867295 0.8618277890133959 0.6800820252411423 P
0.5332704920107955 0.3743022859530656 0.6664789327089766 P
0.5080665541668641 0.8617816651890606 0.6872699288868602 P
0.2715410768780994 0.1211372117652542 0.8092517775477723 P
0.2702655668579008 0.6056530672551518 0.8398262158561212 P
0.7712509927657605 0.1330661908320213 0.8136411353143286 P
0.7725986474560007 0.6064224306049213 0.8367778706974676 P
0.4677953373641762 0.1176605303714899 0.3145082495190304 P
0.4800268830256111 0.6425779639116262 0.3383381082512963 P
0.972677041658381 0.1189352898521509 0.3123026520397105 P
0.9841265571798062 0.6411184482960561 0.3367534152051972 P
0.0970103004930441 0.2739384361839591 0.5932030875113645 O
0.0895418355296154 0.763101851880838 0.6368508459843638 O
0.5886574833434632 0.2766139168083319 0.5917058753271255 O
0.5914877959367119 0.7664842216020803 0.6378142997588249 O
0.1811613571809828 0.2896866944760185 0.1263550090198454 O
0.1427329987716363 0.7861626535835652 0.1180724416926362 O
0.6756075534666276 0.2892910718294043 0.1300391749103082 O
0.6478648540249988 0.7786289134369159 0.1079151165328514 O
0.3387803485742368 0.2234214474841657 0.8539405492923337 O
0.3346930271423491 0.7038466007293169 0.9014341547039288 O
0.8393443876232735 0.2322448103650232 0.8690340819428763 O
0.841100390582421 0.7042163364420752 0.8963161749005638 O
0.3931782362437533 0.2179252615332284 0.3617353456418734 O
0.3963299476717939 0.7346539668055675 0.3940372741906201 O
0.8963271474274839 0.2147067724032733 0.3702463372615145 O
0.9057416792973483 0.7380006918012403 0.3900011434894596 O
0.348950171385969 0.0283834089032561 0.8734474553157583 O
0.3503395381973133 0.5087860202610424 0.8921854890009212 O
0.8506085441856891 0.0366216712469447 0.8663950238102728 O
0.8511471677527289 0.5089531666250912 0.8911366503951571 O
0.3932506918407569 0.0237368506634703 0.3799412733847634 O
0.4187635697965534 0.5405457214103274 0.3949244234311663 O
0.9081672351215493 0.0198207216274811 0.3686646353399544 O
0.9149393704570533 0.5431026521657597 0.393719526778741 O
0.3944762498281798 0.3969716366924462 0.1268049054104651 O
0.3676511415731945 0.8764268178360105 0.1291106867057593 O
0.8920673132048718 0.3956876575214141 0.1291712122221952 O
0.8712052074320614 0.871123891772278 0.1278939417490075 O
0.2757003702118794 0.1103958677580433 0.6404417237587574 O
0.2847747931930947 0.6098588690294878 0.6721735448917718 O
0.7764295337580724 0.1318404328690305 0.6444166541799502 O
0.7875240021561895 0.6104245984676013 0.6694979281908596 O
0.1236689079989684 0.1194205340933417 0.867379673225059 O
0.1204140287607629 0.5981737435443628 0.8905075382874513 O
0.6255658026690717 0.124024394427467 0.8726665579196757 O
0.6238075626317557 0.598709942297248 0.889361210013978 O
0.1221828640496717 0.12489992619382 0.3702055967815265 O
0.1327096480284334 0.646893092937043 0.3894230702076448 O
0.6138591469946545 0.1223493081367639 0.3713972988824866 O
0.629811202318167 0.6505389411589323 0.3885571030339673 O
0.0685154283775709 0.3669244400134227 0.8256865585427274 O
0.0182545443008001 0.8693246577066814 0.8494985636457449 O
0.5650986077775509 0.3676267413927963 0.8297148780811207 O
0.5144107742097072 0.8626971466391407 0.8590817609872811 O
0.2369098573628359 0.38614480892458 0.3526146988262118 O
0.188134464161134 0.8901005713395866 0.3381827817532195 O
0.737584626934157 0.3832243453432875 0.3578767524694786 O
0.7065138553925912 0.8768989983787974 0.3355352639190547 O
0.1643946931625468 0.4850898395820347 0.1347918514480812 O
0.1527272627818852 0.9792976016582324 0.1010540580716205 O
0.6637541694957602 0.4845650136990338 0.1395630462686116 O
0.6540859710240362 0.9724239933972502 0.1039856364238007 O
0.4619602536419773 0.1146659212054729 0.1465399862806813 O
0.4653496171591651 0.6390065574414895 0.1700027175094611 O
0.9686385965844375 0.1237163915396695 0.1453356971255205 O
0.9695770687273405 0.6373885742021199 0.1684532761782247 O
0.3805723983107526 0.3838978882699567 0.6362552363190788 O
0.3584589603596617 0.850920099208713 0.6328218139801275 O
0.8813076913476813 0.3779907870907009 0.633786909191664 O
0.863803761001962 0.8568118294413651 0.6232149766522481 O
0.1039361092094794 0.4680157857901624 0.5982193404928184 O
0.0825227010329272 0.9573797308632392 0.6148673917196913 O
0.6069871884696384 0.4699566124840353 0.6058072081421686 O
0.570769312803227 0.9613847119678534 0.6340938231574914 O
