System                                  
   1.0000000000000000     
    10.2852317212148616   -0.0002002927936414   -5.4002187051931321
    -2.8351896634306994    9.8867470578824275   -5.4002254834420542
     0.0099513128610022    0.0132069081834311   12.5149077806612770
  Mg              Mn              O             
    11    32    64
Direct
     0.1897282174609072    0.3113410559907756    0.3809846926595625
     0.1935474984664769    0.3182495202627088    0.8780633749131481
     0.1861485307493212    0.8112634923702613    0.3725307248922967
     0.1855917622943868    0.8102804561111788    0.8815370988745247
     0.6879339168137267    0.3175629028094958    0.3751230666204285
     0.6917105463424322    0.8150887861910262    0.8750536962852846
     0.3047228139338276    0.1811169581259398    0.1173020138973515
     0.3146491193762700    0.6879707736048196    0.6271275262908299
     0.8126392378400663    0.1867331452062688    0.1147071407251757
     0.8105101249289162    0.1901095963107520    0.6253912812055744
     0.8108425343290184    0.6866000899765878    0.1282745016487602
     0.9947223726717991   -0.0008073282187414    0.2461507766589546
     1.0013774018628863    0.9988432406967749    0.7505424492590208
    -0.0010712352565810    0.4944076913797049    0.2455149354760763
     0.0059047034487896    0.5075073077262012    0.7624217618562441
     0.5025908921135026    0.0003802406446602    0.2522769908670266
     0.5005719920470205    1.0038652441733569    0.7482351495639045
     0.4899671502148442    0.4965694032512948    0.2401504873101502
     0.5054105880992193    0.5030859980112133    0.7572143602118202
     0.9946765387845500    0.2474161238648412    0.9891752855897851
    -0.0004379618675203    0.2502356006578337    0.4984666425609755
     0.0064384908005275    0.7477929691044735    0.0111202261894370
     0.9964944272667672    0.7484686649815154    0.4999676747216854
     0.5065909592472995    0.2515446659084776    0.0082530486081391
     0.5010764687678809    0.2553849058452882    0.5065380506599537
     0.5011496650785336    0.7521841699576984    0.0047721678033901
     0.4947523909740368    0.7426903725088368    0.4827121074460715
     0.2552489290291829    0.0011944314960559    0.2558909222420663
     0.2560412407591318    0.0064678819291219    0.7606960524380874
     0.2472350495502357    0.4944805316954870    0.2457931403142287
     0.2569659378036819    0.5063998464550309    0.7640423137788670
     0.7464311603447594    0.0004635053621955    0.2456980563721798
     0.7441418306269848    0.9926969853146204    0.7338120677789758
     0.7461223155979608    0.4953439815719418    0.2410907655696457
     0.7525271711500502    0.5068736147603737    0.7583131091997747
    -0.0029663903205566   -0.0037924508330769   -0.0050648948474420
     1.0006793788851940    1.0009451362205939    0.5016951382781760
     1.0022571499389614    0.4994113068976565    0.0039424190941693
     0.9958630930245392    0.4975042893518032    0.4951489504057802
     0.5002663990420229    0.9983433555961436    0.0001167629387906
     0.4975540765250441    0.9981825769009264    0.4960541091968815
     0.5039924061663071    0.5073162801827631    0.0079698872796813
     0.4992519851437505    0.4987327713669183    0.4946874009134750
     0.3719891676294934    0.3805888282413873    0.2421547755782989
     0.3997573579938674    0.4138898506017026    0.8015325341373657
     0.3915065910351518    0.9061179912817857    0.2846508574795319
     0.3786253290258284    0.8923005191590315    0.7532133354608322
     0.8727918029215002    0.3847123225797055    0.2465419688922113
     0.8770893604014421    0.3923935055848748    0.7544372745813963
     0.8740283621572315    0.8879405383777262    0.2469043271741475
     0.8819275542713355    0.8990575291258819    0.7597931577878155
     0.3653096465348353    0.1043295726522267    0.4594418737952318
     0.3911953051639795    0.1266973622765736    0.0038195283618697
     0.3877803808076807    0.6238622198104512    0.4966853029180084
     0.3938473094964663    0.6248739613403071    1.0002971204386928
     0.8871912357139253    0.1253404530635059    0.4980585038594483
     0.8761396858665202    0.1127319383364940    0.9786348419022987
     0.8625076925129551    0.5978933290101163    0.4493385848347067
     0.8905607699717277    0.6304931582492507    0.0081330866022955
     0.0844425622439404    0.0988637259022544    0.4493790544191264
     0.1021080145951563    0.1079944171984710   -0.0279930176651598
     0.1104627763976943    0.6246714753344345    0.4994977577816653
     0.1073058256849790    0.6261484653608330    0.0015781708573673
     0.6080847354209549    0.1258912623199199    0.4985407723723426
     0.6128930599657501    0.1259555193622716    0.0014230719554014
     0.5852955975984774    0.5969225791017297    0.4446545090833764
     0.6134222996369917    0.6261458753305835    0.0037760620777827
     0.1221591148537837    0.1073626119510824    0.2450126243051418
     0.1294348349565683    0.1150635533759404    0.7549148074242238
     0.1242407022148488    0.6101856640085939    0.2506891269887676
     0.1238248351627391    0.6118814766062887    0.7490046265747349
     0.6227708954875785    0.1146850743065304    0.2476655223272873
     0.6018247807814552    0.0901308932424279    0.7045173883372687
     0.6090053244474598    0.5924453164731733    0.2197359968295377
     0.6245341699792377    0.6160408089541963    0.7475761019728392
     0.1242457894507807    0.3788030724722287    0.2466441236779389
     0.1227912071611554    0.3854913388724179    0.7463087836013024
     0.1150187503472909    0.8776185061577788    0.2334617735514547
     0.1274385285381702    0.8897466923054410    0.7558300582151906
     0.6132818838870545    0.3711926760722212    0.2250926570709661
     0.6178885361238248    0.3880766995796408    0.7336405697033501
     0.6150119305381209    0.8827416779816848    0.2265160833008976
     0.6252207391205871    0.8893523424527318    0.7468631008126735
     0.1164766036531755    0.3731543863052019    0.0012471302671299
     0.1155488994961846    0.3783640760478316    0.5067417337790709
     0.1281225020636418    0.8864938738433569    0.0288998773896548
     0.1127671081340695    0.8756580107651516    0.5025757720123859
     0.6261025449117263    0.3875781012522202    0.0319124402210335
     0.6131909326816609    0.3778688769158201    0.4996201634592470
     0.6132035634435044    0.8761728868191540    0.9994940352332661
     0.6194614654307210    0.8878008972962684    0.5180134534753305
     0.3689284747936046    0.1086941642173914    0.2467050737116535
     0.4016979127858155    0.1393144841474287    0.8031808515746376
     0.3736789330243658    0.6039647308353111    0.2488489330443197
     0.3822234272523118    0.6213732781225452    0.7640174865630686
     0.8751114828479761    0.1112933508438123    0.2434925725904024
     0.8776966670924239    0.1113334176832183    0.7487377214989941
     0.8729567909941518    0.6097032898053970    0.2497742359519010
     0.9041824292282322    0.6441883154318734    0.8084308765952094
     0.3973401973287979    0.3836093464899359    0.0211389931471486
     0.3897296950053262    0.3798341401405723    0.5056805408572143
     0.3871454536256149    0.8779427311799370    0.0028416106383106
     0.3874138754696717    0.8740483262228987    0.4969934886074494
     0.9023050389649181    0.3802758751678201    1.0150876069580919
     0.8881630536945596    0.3769507593005886    0.5029064336599793
     0.8982210386343525    0.8888652150111291    0.0268574767983918
     0.9147949019227191    0.8992736757057576    0.5474881153338726

  0.00000000E+00  0.00000000E+00  0.00000000E+00
  0.00000000E+00  0.00000000E+00  0.00000000E+00
  0.00000000E+00  0.00000000E+00  0.00000000E+00
  0.00000000E+00  0.00000000E+00  0.00000000E+00
  0.00000000E+00  0.00000000E+00  0.00000000E+00
  0.00000000E+00  0.00000000E+00  0.00000000E+00
  0.00000000E+00  0.00000000E+00  0.00000000E+00
  0.00000000E+00  0.00000000E+00  0.00000000E+00
  0.00000000E+00  0.00000000E+00  0.00000000E+00
  0.00000000E+00  0.00000000E+00  0.00000000E+00
  0.00000000E+00  0.00000000E+00  0.00000000E+00
  0.00000000E+00  0.00000000E+00  0.00000000E+00
  0.00000000E+00  0.00000000E+00  0.00000000E+00
  0.00000000E+00  0.00000000E+00  0.00000000E+00
  0.00000000E+00  0.00000000E+00  0.00000000E+00
  0.00000000E+00  0.00000000E+00  0.00000000E+00
  0.00000000E+00  0.00000000E+00  0.00000000E+00
  0.00000000E+00  0.00000000E+00  0.00000000E+00
  0.00000000E+00  0.00000000E+00  0.00000000E+00
  0.00000000E+00  0.00000000E+00  0.00000000E+00
  0.00000000E+00  0.00000000E+00  0.00000000E+00
  0.00000000E+00  0.00000000E+00  0.00000000E+00
  0.00000000E+00  0.00000000E+00  0.00000000E+00
  0.00000000E+00  0.00000000E+00  0.00000000E+00
  0.00000000E+00  0.00000000E+00  0.00000000E+00
  0.00000000E+00  0.00000000E+00  0.00000000E+00
  0.00000000E+00  0.00000000E+00  0.00000000E+00
  0.00000000E+00  0.00000000E+00  0.00000000E+00
  0.00000000E+00  0.00000000E+00  0.00000000E+00
  0.00000000E+00  0.00000000E+00  0.00000000E+00
  0.00000000E+00  0.00000000E+00  0.00000000E+00
  0.00000000E+00  0.00000000E+00  0.00000000E+00
  0.00000000E+00  0.00000000E+00  0.00000000E+00
  0.00000000E+00  0.00000000E+00  0.00000000E+00
  0.00000000E+00  0.00000000E+00  0.00000000E+00
  0.00000000E+00  0.00000000E+00  0.00000000E+00
  0.00000000E+00  0.00000000E+00  0.00000000E+00
  0.00000000E+00  0.00000000E+00  0.00000000E+00
  0.00000000E+00  0.00000000E+00  0.00000000E+00
  0.00000000E+00  0.00000000E+00  0.00000000E+00
  0.00000000E+00  0.00000000E+00  0.00000000E+00
  0.00000000E+00  0.00000000E+00  0.00000000E+00
  0.00000000E+00  0.00000000E+00  0.00000000E+00
  0.00000000E+00  0.00000000E+00  0.00000000E+00
  0.00000000E+00  0.00000000E+00  0.00000000E+00
  0.00000000E+00  0.00000000E+00  0.00000000E+00
  0.00000000E+00  0.00000000E+00  0.00000000E+00
  0.00000000E+00  0.00000000E+00  0.00000000E+00
  0.00000000E+00  0.00000000E+00  0.00000000E+00
  0.00000000E+00  0.00000000E+00  0.00000000E+00
  0.00000000E+00  0.00000000E+00  0.00000000E+00
  0.00000000E+00  0.00000000E+00  0.00000000E+00
  0.00000000E+00  0.00000000E+00  0.00000000E+00
  0.00000000E+00  0.00000000E+00  0.00000000E+00
  0.00000000E+00  0.00000000E+00  0.00000000E+00
  0.00000000E+00  0.00000000E+00  0.00000000E+00
  0.00000000E+00  0.00000000E+00  0.00000000E+00
  0.00000000E+00  0.00000000E+00  0.00000000E+00
  0.00000000E+00  0.00000000E+00  0.00000000E+00
  0.00000000E+00  0.00000000E+00  0.00000000E+00
  0.00000000E+00  0.00000000E+00  0.00000000E+00
  0.00000000E+00  0.00000000E+00  0.00000000E+00
  0.00000000E+00  0.00000000E+00  0.00000000E+00
  0.00000000E+00  0.00000000E+00  0.00000000E+00
  0.00000000E+00  0.00000000E+00  0.00000000E+00
  0.00000000E+00  0.00000000E+00  0.00000000E+00
  0.00000000E+00  0.00000000E+00  0.00000000E+00
  0.00000000E+00  0.00000000E+00  0.00000000E+00
  0.00000000E+00  0.00000000E+00  0.00000000E+00
  0.00000000E+00  0.00000000E+00  0.00000000E+00
  0.00000000E+00  0.00000000E+00  0.00000000E+00
  0.00000000E+00  0.00000000E+00  0.00000000E+00
  0.00000000E+00  0.00000000E+00  0.00000000E+00
  0.00000000E+00  0.00000000E+00  0.00000000E+00
  0.00000000E+00  0.00000000E+00  0.00000000E+00
  0.00000000E+00  0.00000000E+00  0.00000000E+00
  0.00000000E+00  0.00000000E+00  0.00000000E+00
  0.00000000E+00  0.00000000E+00  0.00000000E+00
  0.00000000E+00  0.00000000E+00  0.00000000E+00
  0.00000000E+00  0.00000000E+00  0.00000000E+00
  0.00000000E+00  0.00000000E+00  0.00000000E+00
  0.00000000E+00  0.00000000E+00  0.00000000E+00
  0.00000000E+00  0.00000000E+00  0.00000000E+00
  0.00000000E+00  0.00000000E+00  0.00000000E+00
  0.00000000E+00  0.00000000E+00  0.00000000E+00
  0.00000000E+00  0.00000000E+00  0.00000000E+00
  0.00000000E+00  0.00000000E+00  0.00000000E+00
  0.00000000E+00  0.00000000E+00  0.00000000E+00
  0.00000000E+00  0.00000000E+00  0.00000000E+00
  0.00000000E+00  0.00000000E+00  0.00000000E+00
  0.00000000E+00  0.00000000E+00  0.00000000E+00
  0.00000000E+00  0.00000000E+00  0.00000000E+00
  0.00000000E+00  0.00000000E+00  0.00000000E+00
  0.00000000E+00  0.00000000E+00  0.00000000E+00
  0.00000000E+00  0.00000000E+00  0.00000000E+00
  0.00000000E+00  0.00000000E+00  0.00000000E+00
  0.00000000E+00  0.00000000E+00  0.00000000E+00
  0.00000000E+00  0.00000000E+00  0.00000000E+00
  0.00000000E+00  0.00000000E+00  0.00000000E+00
  0.00000000E+00  0.00000000E+00  0.00000000E+00
  0.00000000E+00  0.00000000E+00  0.00000000E+00
  0.00000000E+00  0.00000000E+00  0.00000000E+00
  0.00000000E+00  0.00000000E+00  0.00000000E+00
  0.00000000E+00  0.00000000E+00  0.00000000E+00
  0.00000000E+00  0.00000000E+00  0.00000000E+00
  0.00000000E+00  0.00000000E+00  0.00000000E+00
  0.00000000E+00  0.00000000E+00  0.00000000E+00
