System                                  
   1.0000000000000000     
    11.3414376695480694   -0.0647836135991604   -0.2488026780888000
    -5.6337010728795018    9.9288513910399363    0.0710431474792025
     0.0222419509143507    0.0786910209071783    9.2036924770866690
  Li              Mn              Co              Ni              O             
    10    12     8    12    64
Direct
     0.1713931232770028    0.3397337429936622    0.8987236782517621
     0.1713664206754223    0.8369622945424589    0.8967516080156436
     0.6697761078788282    0.3402944902977164    0.8968352543708559
     0.6728958975171505    0.8380566302057295    0.8946535542517848
     0.4933713058955539    0.9955683991523371    0.4935643036540066
     0.9941072143128086    0.9953617534883857    0.4941206353661943
     0.3337102439257701    0.1639123560167048    0.4048335907187385
     0.3335128505399219    0.6614585721009053    0.4011634147185282
     0.8330061850006132    0.1639081803626931    0.4028579022268574
     0.8313612078108747    0.6621072452293045    0.3996852911695790
     0.0842486991921842    0.4176928558858246    0.2113932572928815
     0.0837388013392972    0.9157779888196456    0.2053705702336787
     0.5848123759951802    0.4185816022432850    0.2103954699021715
     0.5858304884135074    0.9168913201471386    0.2045790672782022
     0.0845831748235286    0.1694617821504895    0.2075831866757489
     0.0838991803369638    0.6663168907032976    0.2097655156616314
     0.5856782685635694    0.1704655836327642    0.2073401183412557
     0.5847974916342956    0.6673851018268089    0.2098200641388630
     0.1657685934705604    0.0825985698466835    0.7242124046120028
     0.1670136294672401    0.5808047106046705    0.7094197913602290
     0.6660830881928934    0.0827381572561763    0.7201627115438186
     0.6665095501724601    0.5798792036689620    0.7048749145959881
     0.1678748296549340    0.3278594682503187    0.4847942264341318
     0.1643337662771966    0.8251683805292428    0.4842483684603366
     0.6720363181273271    0.3320235036571361    0.4858738380156324
     0.6650482813049575    0.8266136869346080    0.4804767223473954
     0.3383179168606016    0.1720034939832898    0.9856266363510597
     0.3413226822551186    0.6721022274449866    0.9833681269017669
     0.8404424593546538    0.1750651639984384    0.9857542635476980
     0.8411543747449347    0.6711817123970134    0.9811967932277752
     0.4157953236398333    0.0849401377830518    0.7199181244142081
     0.4202041184101835    0.5864574135988180    0.7094360902214345
     0.9154031249561912    0.0833964811265818    0.7186102983434952
     0.9192744133746515    0.5862213444211694    0.7086132929656827
     0.3332888363690871    0.4154114538810066    0.2102549779353350
     0.3320428803947506    0.9151656062124484    0.2040324359187999
     0.8334807651842487    0.4153939779677464    0.2099437925911768
     0.8309825332402376    0.9145572903212812    0.2038307054126673
     0.4142449516588235    0.3314561418239753    0.7096623917731154
     0.4143775569509586    0.8313659526290994    0.7179716089809517
     0.9151559489721312    0.3313890520942030    0.7127974287844423
     0.9138072731777347    0.8306315297566939    0.7166980539536965
     0.1711763706536019    0.0865849591641456    0.1069878067628029
     0.1712502987865497    0.5864985570962412    0.1059966536590326
     0.6714098744873420    0.0888973147557055    0.1010220501628948
     0.6708993369893146    0.5864284293694786    0.1040846931775813
     0.4209855685362959    0.3395558900476300    0.0950124126124157
     0.4205086351783136    0.8367167681121956    0.0888300105972119
     0.9211763024824393    0.3393483150152831    0.0944954172503181
     0.9205295523315761    0.8355497096011351    0.0904105421851411
     0.3310547537089063    0.1641527160985268    0.6155474142485142
     0.3365719478268860    0.6719812493939188    0.6100605265931521
     0.8335536309328272    0.1662403257166139    0.6145383344906398
     0.8380936088802277    0.6717226383125251    0.6085448416533112
     0.2595299741374877    0.0223533104459175    0.8522624092522492
     0.2642280572620811    0.5245458908153645    0.8409001628778155
     0.7601680250674847    0.0249685020720350    0.8511852362038774
     0.7652530835484900    0.5246162839535806    0.8406187715863407
     0.2502137567594357    0.2326502364786338    0.8514254224110194
     0.2605585406767583    0.7395530862127752    0.8387621855061925
     0.7624836148440957    0.2442719909130871    0.8395733790258967
     0.7605043300087708    0.7387545911484245    0.8375343810431118
     0.3187845010031254    0.4044721678983618    0.5945747926408147
     0.3305274306532854    0.9104520858439779    0.5970247667133900
     0.8307799128101541    0.4083301277523413    0.5924315387722774
     0.8322581817701796    0.9100294592693157    0.5968059950908692
     0.2297190062803165    0.2467911046389683    0.3486280547323854
     0.2335807550333612    0.7513189798426343    0.3468235074903209
     0.7311308262437086    0.2478090090641095    0.3467978288441348
     0.7329536811048980    0.7515098535999066    0.3446851773897984
     0.0184590556274109    0.2580913078184905    0.3374431690754043
     0.0178344575427089    0.7588140247284803    0.3362851017954902
     0.5203463634567483    0.2601313754266233    0.3380207710754051
     0.5177830869454317    0.7600807484134171    0.3333416555650470
     0.0817556884226465    0.1603156132710188    0.5994775731032719
     0.0867591814231650    0.6700529979491784    0.5980962141156421
     0.5821594822302568    0.1612246994989416    0.5986183846751529
     0.5816718592497908    0.6606278706350521    0.5952541427639273
     0.9936906897876406    0.9946159858546199    0.8180405895534808
     0.9984034470595879    0.4975482701652360    0.8084366950087892
     0.4961431674063854    0.9970764507502056    0.8179045230702340
     0.5000273527671243    0.4973279840057346    0.8060595686539429
    -0.0034698685582403   -0.0026412070907399    0.3019082865329702
     0.9987649447052863    0.4989400619375906    0.3116739409655570
     0.4981926874023466    0.9982160869865802    0.3014423511058648
     0.4991346568710917    0.4993039067537474    0.3116522203222456
     0.1684010944693802    0.3353956811177554    0.1061124067392075
     0.1676287598790319    0.8333649388043644    0.1037229083344213
     0.6696164201643621    0.3362862388567419    0.1052173130659176
     0.6679322084544218    0.8335495880177285    0.1020914684646102
     0.4805840501022805    0.2480158280116580    0.8516956852634091
     0.4837493694285716    0.7514560512033528    0.8473013314787284
     0.9826253910923499    0.2517395630775273    0.8478064915732925
     0.9837053279341360    0.7498580468639109    0.8464030450789028
     0.0805252396045619    0.4149094203983014    0.6025520212666919
     0.0796798547061470    0.9160263851113543    0.6057148844110787
     0.5955324135123886    0.4154133257031710    0.5987199681192771
     0.5793818046888564    0.9172458444151119    0.6072797915476461
     0.2377461665215012    0.4750433076472141    0.3453239983604559
     0.2349040424524393    0.9735724252576329    0.3464259519463425
     0.7412966041821845    0.4771392559006647    0.3429735697083017
     0.7370943534288432    0.9768258647566451    0.3420591125331120
     0.4191592242678464    0.0966946295710030    0.0966245529542187
     0.4189451606605130    0.5958093960874775    0.0946074975712915
     0.9191493505277066    0.0969997080288422    0.0935385337773015
     0.9199775757650008    0.5954376572085374    0.0949176737784681

  0.00000000E+00  0.00000000E+00  0.00000000E+00
  0.00000000E+00  0.00000000E+00  0.00000000E+00
  0.00000000E+00  0.00000000E+00  0.00000000E+00
  0.00000000E+00  0.00000000E+00  0.00000000E+00
  0.00000000E+00  0.00000000E+00  0.00000000E+00
  0.00000000E+00  0.00000000E+00  0.00000000E+00
  0.00000000E+00  0.00000000E+00  0.00000000E+00
  0.00000000E+00  0.00000000E+00  0.00000000E+00
  0.00000000E+00  0.00000000E+00  0.00000000E+00
  0.00000000E+00  0.00000000E+00  0.00000000E+00
  0.00000000E+00  0.00000000E+00  0.00000000E+00
  0.00000000E+00  0.00000000E+00  0.00000000E+00
  0.00000000E+00  0.00000000E+00  0.00000000E+00
  0.00000000E+00  0.00000000E+00  0.00000000E+00
  0.00000000E+00  0.00000000E+00  0.00000000E+00
  0.00000000E+00  0.00000000E+00  0.00000000E+00
  0.00000000E+00  0.00000000E+00  0.00000000E+00
  0.00000000E+00  0.00000000E+00  0.00000000E+00
  0.00000000E+00  0.00000000E+00  0.00000000E+00
  0.00000000E+00  0.00000000E+00  0.00000000E+00
  0.00000000E+00  0.00000000E+00  0.00000000E+00
  0.00000000E+00  0.00000000E+00  0.00000000E+00
  0.00000000E+00  0.00000000E+00  0.00000000E+00
  0.00000000E+00  0.00000000E+00  0.00000000E+00
  0.00000000E+00  0.00000000E+00  0.00000000E+00
  0.00000000E+00  0.00000000E+00  0.00000000E+00
  0.00000000E+00  0.00000000E+00  0.00000000E+00
  0.00000000E+00  0.00000000E+00  0.00000000E+00
  0.00000000E+00  0.00000000E+00  0.00000000E+00
  0.00000000E+00  0.00000000E+00  0.00000000E+00
  0.00000000E+00  0.00000000E+00  0.00000000E+00
  0.00000000E+00  0.00000000E+00  0.00000000E+00
  0.00000000E+00  0.00000000E+00  0.00000000E+00
  0.00000000E+00  0.00000000E+00  0.00000000E+00
  0.00000000E+00  0.00000000E+00  0.00000000E+00
  0.00000000E+00  0.00000000E+00  0.00000000E+00
  0.00000000E+00  0.00000000E+00  0.00000000E+00
  0.00000000E+00  0.00000000E+00  0.00000000E+00
  0.00000000E+00  0.00000000E+00  0.00000000E+00
  0.00000000E+00  0.00000000E+00  0.00000000E+00
  0.00000000E+00  0.00000000E+00  0.00000000E+00
  0.00000000E+00  0.00000000E+00  0.00000000E+00
  0.00000000E+00  0.00000000E+00  0.00000000E+00
  0.00000000E+00  0.00000000E+00  0.00000000E+00
  0.00000000E+00  0.00000000E+00  0.00000000E+00
  0.00000000E+00  0.00000000E+00  0.00000000E+00
  0.00000000E+00  0.00000000E+00  0.00000000E+00
  0.00000000E+00  0.00000000E+00  0.00000000E+00
  0.00000000E+00  0.00000000E+00  0.00000000E+00
  0.00000000E+00  0.00000000E+00  0.00000000E+00
  0.00000000E+00  0.00000000E+00  0.00000000E+00
  0.00000000E+00  0.00000000E+00  0.00000000E+00
  0.00000000E+00  0.00000000E+00  0.00000000E+00
  0.00000000E+00  0.00000000E+00  0.00000000E+00
  0.00000000E+00  0.00000000E+00  0.00000000E+00
  0.00000000E+00  0.00000000E+00  0.00000000E+00
  0.00000000E+00  0.00000000E+00  0.00000000E+00
  0.00000000E+00  0.00000000E+00  0.00000000E+00
  0.00000000E+00  0.00000000E+00  0.00000000E+00
  0.00000000E+00  0.00000000E+00  0.00000000E+00
  0.00000000E+00  0.00000000E+00  0.00000000E+00
  0.00000000E+00  0.00000000E+00  0.00000000E+00
  0.00000000E+00  0.00000000E+00  0.00000000E+00
  0.00000000E+00  0.00000000E+00  0.00000000E+00
  0.00000000E+00  0.00000000E+00  0.00000000E+00
  0.00000000E+00  0.00000000E+00  0.00000000E+00
  0.00000000E+00  0.00000000E+00  0.00000000E+00
  0.00000000E+00  0.00000000E+00  0.00000000E+00
  0.00000000E+00  0.00000000E+00  0.00000000E+00
  0.00000000E+00  0.00000000E+00  0.00000000E+00
  0.00000000E+00  0.00000000E+00  0.00000000E+00
  0.00000000E+00  0.00000000E+00  0.00000000E+00
  0.00000000E+00  0.00000000E+00  0.00000000E+00
  0.00000000E+00  0.00000000E+00  0.00000000E+00
  0.00000000E+00  0.00000000E+00  0.00000000E+00
  0.00000000E+00  0.00000000E+00  0.00000000E+00
  0.00000000E+00  0.00000000E+00  0.00000000E+00
  0.00000000E+00  0.00000000E+00  0.00000000E+00
  0.00000000E+00  0.00000000E+00  0.00000000E+00
  0.00000000E+00  0.00000000E+00  0.00000000E+00
  0.00000000E+00  0.00000000E+00  0.00000000E+00
  0.00000000E+00  0.00000000E+00  0.00000000E+00
  0.00000000E+00  0.00000000E+00  0.00000000E+00
  0.00000000E+00  0.00000000E+00  0.00000000E+00
  0.00000000E+00  0.00000000E+00  0.00000000E+00
  0.00000000E+00  0.00000000E+00  0.00000000E+00
  0.00000000E+00  0.00000000E+00  0.00000000E+00
  0.00000000E+00  0.00000000E+00  0.00000000E+00
  0.00000000E+00  0.00000000E+00  0.00000000E+00
  0.00000000E+00  0.00000000E+00  0.00000000E+00
  0.00000000E+00  0.00000000E+00  0.00000000E+00
  0.00000000E+00  0.00000000E+00  0.00000000E+00
  0.00000000E+00  0.00000000E+00  0.00000000E+00
  0.00000000E+00  0.00000000E+00  0.00000000E+00
  0.00000000E+00  0.00000000E+00  0.00000000E+00
  0.00000000E+00  0.00000000E+00  0.00000000E+00
  0.00000000E+00  0.00000000E+00  0.00000000E+00
  0.00000000E+00  0.00000000E+00  0.00000000E+00
  0.00000000E+00  0.00000000E+00  0.00000000E+00
  0.00000000E+00  0.00000000E+00  0.00000000E+00
  0.00000000E+00  0.00000000E+00  0.00000000E+00
  0.00000000E+00  0.00000000E+00  0.00000000E+00
  0.00000000E+00  0.00000000E+00  0.00000000E+00
  0.00000000E+00  0.00000000E+00  0.00000000E+00
  0.00000000E+00  0.00000000E+00  0.00000000E+00
  0.00000000E+00  0.00000000E+00  0.00000000E+00
