System
1.0
5.367046900560854 0.0462579843465466 8.210059682000407
2.434250257183471 4.878232653222671 8.235683414038151
-0.0408226551610946 0.0361012653913643 9.876346691410506
Co O 
8 16 
direct
0.0050046774936995 0.001808756348482 0.0021321640274534 Co
-0.0025580899797739 0.9963725223128542 0.4965076305436625 Co
-0.0006902398005249 0.4984393269286043 -0.0012751831631013 Co
0.0048692869854089 0.5025978508904512 0.5016364539763624 Co
0.4971392660145443 0.997086220605583 -0.0030181566090026 Co
0.5026455811418162 1.000016996359279 0.5001899690660243 Co
0.5044809385292783 0.5022461275304279 0.0023231811342133 Co
0.497533814146437 0.4966229624886049 0.4962134752318351 Co
0.1279144081706761 0.1365832465407048 0.1278879339595173 O
0.1271435924410375 0.1387730518840306 0.6353429343728477 O
0.1348310750545684 0.6365532273603444 0.1359585526659527 O
0.1257907532587604 0.6292040074694317 0.6367446922868174 O
0.6352780553926871 0.1380383398735809 0.1287969933043316 O
0.625677938407331 0.1313588358539744 0.6333921880315112 O
0.6353449198129306 0.6260145802640394 0.1306903214054605 O
0.6353952588784145 0.6279022378797555 0.6378491196609599 O
0.3761850461282724 0.3630197285139796 0.3687226193482923 O
0.3736868906169875 0.365423400978848 0.8592129995152965 O
0.3697634324713442 0.8626605282165006 0.360733874231979 O
0.3757773659765861 0.8681181156905778 0.8626037227615972 O
0.8669955091724093 0.3613947299977193 0.3699553936585343 O
0.8732320878402714 0.3666232319412941 0.8677522890563827 O
0.8684209112257926 0.8684181859825374 0.370983727211012 O
0.8647118900047883 0.8704788078417167 0.8626637871601918 O
