System
1.0
11.400938747708212 -0.127046185305991 -0.2333408100202317
-5.717220176732502 9.997921982161543 0.0770862630575056
0.0362140596339119 0.0921245990614989 9.263612084811271
Mn Co Ni O 
12 8 12 64 
direct
0.0811598913995839 0.4140605011105907 0.2115220146255118 Mn
0.0823003430958623 0.9153345732550503 0.2134387203269636 Mn
0.5803576165820499 0.4156139261561638 0.2115446094779936 Mn
0.5843548188261519 0.9192908766197058 0.2127949307571538 Mn
0.0829746258300436 0.1672123366642347 0.2136268759469554 Mn
0.0832503571548151 0.667786796937632 0.21245510692968 Mn
0.5838249879430928 0.1696493461477616 0.2136434580087794 Mn
0.5841180586498811 0.6695820222441493 0.211280290301691 Mn
0.1656913288240333 0.0794779525330021 0.705720377902687 Mn
0.1693029189235484 0.5841603385267111 0.7112407466038088 Mn
0.671656010854803 0.0870560883836519 0.7090169055744538 Mn
0.6649527817177343 0.5810337549726502 0.7067620338167043 Mn
0.1682400900454724 0.329384668625818 0.481723912037609 Co
0.1684075626031624 0.8333675485648402 0.4851209474689971 Co
0.6650830763473558 0.3363677244369733 0.4814678314784905 Co
0.6711650121867443 0.8348332173005096 0.485536489483931 Co
0.3332284690428862 0.1648352060417698 0.9873402056539758 Co
0.3371426864066815 0.6709089897845464 0.9865513211316808 Co
0.8372240533495572 0.1650016470718849 0.9871659264547741 Co
0.8342400768938396 0.6668564384739377 0.9881734757126142 Co
0.4152081028059441 0.0842201981202353 0.7056971212717745 Ni
0.4199261167177268 0.5880568052397747 0.7125400776190389 Ni
0.9169726530281328 0.0829632088823803 0.7114297763000274 Ni
0.9144339045476632 0.5832799753383683 0.7060512731119327 Ni
0.3304904100829449 0.415903097610631 0.2095796248041748 Ni
0.3312996330465846 0.9165814670131615 0.2139364776699422 Ni
0.8308643228057976 0.4170367320409167 0.2114364833192143 Ni
0.8307778081616062 0.9155797323833433 0.214539154110107 Ni
0.4114742193954013 0.3294713252604404 0.7063158692289216 Ni
0.419342060344173 0.8352294250984734 0.7106376324112667 Ni
0.9215695009532247 0.3328842954902755 0.7112852159255525 Ni
0.913741921380852 0.8283783315346516 0.7060497074557691 Ni
0.168097739116869 0.0841486853855115 0.106159077388376 O
0.1691687082954393 0.5855882535609616 0.1088743987421053 O
0.6698649885505427 0.0869943775391978 0.1087999977546208 O
0.6676275827919799 0.5858897287746572 0.1049841783114553 O
0.4173251410219494 0.3328148820571351 0.094727793773021 O
0.4182619491667581 0.8373201989538039 0.1017273036271137 O
0.9196527134065078 0.3318481580781116 0.096063878751435 O
0.9178485727676682 0.8352490462415917 0.0985969006718269 O
0.3328395723559955 0.1667558531957743 0.6056723798851303 O
0.3388846466735809 0.6719340266643123 0.6110943466115608 O
0.8399541881238749 0.1696074435305268 0.6120662502095932 O
0.832375106469483 0.666069688942312 0.6059567042713874 O
0.2614196417691055 0.0213775757170127 0.83657119161576 O
0.2642009907922377 0.5273804841723913 0.8428979066038582 O
0.7626263199364848 0.0228989010833075 0.8397901977949801 O
0.7608183917301663 0.5216646187551558 0.8365593696202911 O
0.2593913143488385 0.2342966228355939 0.8356822620295947 O
0.2641051266375082 0.7400279585785515 0.838928824681549 O
0.7661447967626053 0.2374105567108361 0.8406951507778266 O
0.7612659598445265 0.7358455829306417 0.8364874576602319 O
0.3200155059227874 0.4077595089210091 0.5940959414399767 O
0.3292417903543207 0.9152057862705035 0.5906559049977533 O
0.8204250452485162 0.4137890978146249 0.5929929623905451 O
0.8256443357867759 0.9117172370579152 0.5938149998429804 O
0.2367985470349338 0.2587005216384234 0.3453733800011533 O
0.2400523375600857 0.7603855452326659 0.3445075182221896 O
0.7376876078840442 0.2640190315412227 0.3454453248042796 O
0.7391452571203305 0.7619933653311975 0.3443442239485883 O
0.0219342315318085 0.259630957949354 0.3412081578844676 O
0.023350766415131 0.7601467446738566 0.3425607907900655 O
0.5195788063011622 0.2598897006228637 0.3404123812833749 O
0.5220859121768509 0.7611556792846059 0.3420788283882103 O
0.0848074647713834 0.1654136398923805 0.5967412533239365 O
0.0871775097539737 0.6701882056646062 0.5970389805326073 O
0.5900647861526186 0.1761419781067375 0.5985253432523461 O
0.5855928328963987 0.6691587576904018 0.5989849213875031 O
0.9974016303971577 0.9932446387799325 0.8048089966387062 O
0.9995577807945872 0.500421343976644 0.8054222469902252 O
0.4996110579259473 1.001079720933438 0.804354488730677 O
0.4963267994068851 0.4956133131330468 0.8054641816151097 O
-0.0014675300979219 0.9975789057860808 0.3136010213568926 O
0.9984543353979655 0.4980427893331664 0.3118547776047557 O
0.4990975728769495 -0.0001259455095124 0.3137681033521997 O
0.4972820954198227 0.4994485050020911 0.3098440070474389 O
0.1646289787705437 0.3329097055933988 0.1092073260650201 O
0.1666316506386792 0.8349436633446766 0.1101708809364542 O
0.6646985702985967 0.3352231261205897 0.1094323439471342 O
0.6670702534176041 0.8367978840343704 0.1102570397850106 O
0.4745722187740382 0.2384526789952695 0.8389070455169366 O
0.4811590698555044 0.7531210659560775 0.8527156687325149 O
0.9805019234507215 0.2270491303807179 0.8540365310418065 O
0.9749460228574737 0.7368529137031238 0.8390679853854095 O
0.0892358793723945 0.4174622517565162 0.6029745717204238 O
0.0836383143452775 0.9155187102487196 0.595136522264947 O
0.5799748601495823 0.4176885845494282 0.5951836932189846 O
0.5874097357465575 0.9202862887292032 0.5975431669680574 O
0.2361927499064467 0.4767132892309511 0.3466944423151254 O
0.2375175315690757 0.9750619639963276 0.3456776508165902 O
0.7319012198861837 0.4759445421236778 0.3474151000780513 O
0.739876288971708 0.976548021436463 0.3456643192637363 O
0.4166176659104656 0.0849929425778522 0.1006427977618969 O
0.4176909409839452 0.5915337469368206 0.1006304525884598 O
0.9154008000708879 0.0833388357281924 0.1040314958699333 O
0.917478609539987 0.5877109954081837 0.1007169237408126 O
