System
1.0
11.400938747708212 -0.127046185305991 -0.2333408100202317
-5.717220176732502 9.997921982161543 0.0770862630575056
0.0362140596339119 0.0921245990614989 9.263612084811271
Li Mn Co Ni O 
14 12 8 12 64 
direct
0.1677084375143472 0.3375376292617591 0.8966748751499201 Li
0.1746842247211771 0.8396894134053733 0.8956692273242718 Li
0.6719044806345685 0.3384171025448752 0.895708442131404 Li
0.6696424505972833 0.8352308525406057 0.8936219569167708 Li
0.4994198470213166 0.9992595223521245 0.9942956965775829 Li
0.9993222923234076 0.0013529461000519 0.9937699962387756 Li
0.4970313755982179 0.5003993161641977 0.4960742057018442 Li
0.4902593863182592 0.9928217837694366 0.4964815067663354 Li
0.9945073647766361 0.4953214339529747 0.4946124594353659 Li
0.988691742510557 0.9928075685257283 0.4946928484011269 Li
0.3299946507020862 0.1666767474630586 0.3958013434072872 Li
0.3277788831563085 0.6635876154264511 0.4019319173273682 Li
0.8302347247235277 0.1633240843884021 0.4004428531490912 Li
0.8320464678496816 0.6611492115714777 0.3991338361395808 Li
0.0846355656550806 0.4187550007229744 0.2081393612536888 Mn
0.0893907370676637 0.9186171015760654 0.2138589353323527 Mn
0.5854816174833825 0.4127957245014244 0.2117314793598468 Mn
0.5834230095549562 0.9118097784118584 0.2129601846282561 Mn
0.086961399428026 0.1734719671020576 0.2108752117767259 Mn
0.0862850748959089 0.6709482906759496 0.2077678389340524 Mn
0.5845102346872268 0.1677146576787117 0.2142074656211167 Mn
0.5864719672819634 0.6692083710900838 0.2134875671104721 Mn
0.1700199849712988 0.0867092595370115 0.7103355481464881 Mn
0.1633243916303419 0.5795629815622574 0.7234819534536155 Mn
0.6680350048925219 0.0825475831414545 0.7138713486974617 Mn
0.6728679113180219 0.5855427867152736 0.7121742064126179 Mn
0.1632765194305165 0.3317448658839711 0.4826759389304564 Co
0.1657517129778307 0.8275710777652311 0.483240024338583 Co
0.6651535362743232 0.326414081176594 0.4829650331207206 Co
0.6677616052878235 0.8294475032438741 0.4847385249544916 Co
0.3421273895453248 0.1741009053868417 0.9787271375357356 Co
0.3357163653993279 0.6678203364641226 0.9826240034606665 Co
0.8392220107338776 0.1731951156279778 0.9826931021924795 Co
0.8469866377528632 0.6730637099506325 0.9838567607414015 Co
0.416608488129991 0.0873083699853838 0.7126420838132703 Ni
0.4119953600347165 0.5821405771295537 0.7138427539480137 Ni
0.9167014382474757 0.0888793555159173 0.7127893348346486 Ni
0.9168062371585463 0.5824047020944885 0.7180932490279032 Ni
0.331595913116269 0.4196708454826797 0.2135780860427561 Ni
0.3321321843516526 0.9157853563869575 0.2107507589357787 Ni
0.8316084387961743 0.4128358604028526 0.2065504682360042 Ni
0.8324570524398242 0.9180646158889578 0.2116572105897717 Ni
0.4152849181038402 0.3320511910272337 0.712225582499404 Ni
0.4115610862036981 0.8260319972972723 0.7143298634802447 Ni
0.9119322899769347 0.3303863003584199 0.7186635492976452 Ni
0.9186250860072241 0.8306681308250031 0.7132473060336778 Ni
0.1697586715563719 0.0870345683263143 0.1006003900969917 O
0.1719338771612774 0.5895615140527676 0.1062338033497609 O
0.6671503577314774 0.0823604165222482 0.1045773532574868 O
0.6682808437605078 0.5848029869177382 0.1017686638538713 O
0.4244004298792942 0.3340822599051881 0.0950204170967161 O
0.4222013198147797 0.8347815038045718 0.0950283736505354 O
0.9206097206715472 0.338308463269804 0.0919811314061712 O
0.926128052714114 0.8357348163801552 0.0930308484472561 O
0.3347306220823912 0.1741048264069391 0.6071254318225078 O
0.3287893318194645 0.6642719971088995 0.6137344213781151 O
0.8340702564553801 0.1720959230671394 0.6114192403986002 O
0.8375847219459979 0.6654541259339992 0.6104721732872208 O
0.2639716215677381 0.0261414225419532 0.8392176194197125 O
0.2524883414532824 0.5202516130771899 0.8528550670471083 O
0.7631623751280912 0.024206080978979 0.8425894308516091 O
0.7611886484000334 0.5235194026134062 0.8459811875828912 O
0.2623041708719923 0.244161789742584 0.8355229794797107 O
0.2609730255370849 0.7407166985883872 0.841813061062323 O
0.7567426636836305 0.2384779643081727 0.8389641528299244 O
0.7649839892629122 0.7404550453913983 0.8402223343048086 O
0.3340673461757406 0.4156578542063672 0.595144514026094 O
0.3274724836602874 0.9075812033220617 0.5963485472262194 O
0.8319479607613864 0.4091858167915865 0.5972729534146216 O
0.8225669856557466 0.9106804836030966 0.5939090238663236 O
0.2401635088887335 0.2652309533832823 0.3434278288913993 O
0.2322780982142655 0.7532026199946757 0.3466367043111088 O
0.7311990603376981 0.2490462132590371 0.3496429602490058 O
0.7356805344012984 0.7542779100213718 0.3491889096605615 O
0.0174451896594394 0.2593616914679769 0.3370592248989155 O
0.0187036474195674 0.7595566738549122 0.3369898713931544 O
0.5178484209215344 0.2568330880042551 0.3389011343906715 O
0.5171432991141333 0.7543531718008382 0.3406751585823818 O
0.0797657384153341 0.1613571893506575 0.5940345406120684 O
0.0803403553556304 0.6584758974869653 0.601282979009212 O
0.578802611503742 0.1587727819734729 0.5974958992130475 O
0.5900250081581101 0.6674039041309974 0.5954786563907625 O
0.9997713751388378 0.0008830440596365 0.8041343305382523 O
0.9929984378194988 0.493205266421799 0.8193453203364327 O
0.4975379110441321 0.9932867683084045 0.8057292429820416 O
0.4991571766235754 0.4981128711030803 0.8042554326751205 O
0.011604638694893 0.0065533887725771 0.3079708011861191 O
0.998981799998598 0.5007910098473404 0.3034026933188023 O
0.4975815379528013 0.9960818147979402 0.3074171847753512 O
0.5042154187247331 0.4988018651943734 0.3078096921473003 O
0.1667305511603978 0.3378307336685005 0.1049980240221976 O
0.1711183260278349 0.8375814021588606 0.105557465577873 O
0.6657655011010475 0.3304369044007386 0.10501156991751 O
0.6585075461615143 0.8289578304874846 0.103314779754854 O
0.4842286974327668 0.2522790035243459 0.8407108844658345 O
0.4786538845974654 0.7390832277008748 0.8448615338182606 O
0.9810407025534367 0.2497282826032275 0.8458411545608413 O
0.9863666478679856 0.7442738688700643 0.8517430208265228 O
0.0768711210996594 0.415978160952481 0.6082350620664599 O
0.0819842383737933 0.9189682333724382 0.5999049366818788 O
0.5815217615038542 0.4184640734353096 0.6007525005890609 O
0.5789760518231193 0.9146785236906754 0.600711440246147 O
0.2302857024619244 0.4805618752284702 0.3500661217051647 O
0.2386715729727023 0.9781805010371913 0.3489521649954642 O
0.7395073152163633 0.474074849139564 0.3441081815205167 O
0.7312434159646454 0.9763896818759248 0.3511479040541532 O
0.4259309168221632 0.0897752716946159 0.0905660475153597 O
0.4219646728360651 0.5837515401464607 0.0962472827309186 O
0.9271870794984058 0.0939120928812607 0.0914047552448 O
0.9192630100769624 0.5964482614373359 0.0953999419461167 O
